*SPEF "ieee 1481-1999"
*DESIGN "pixel_pwm"
*DATE "16:40:03 Saturday October 03, 2026"
*VENDOR "The OpenROAD Project"
*PROGRAM "OpenROAD"
*VERSION "dcf36133a369abc8f3c5e5738cd4d82e4903c0e0"
*DESIGN_FLOW "NAME_SCOPE LOCAL" "PIN_CAP NONE"
*DIVIDER /
*DELIMITER :
*BUS_DELIMITER []
*T_UNIT 1 NS
*C_UNIT 1 PF
*R_UNIT 1 OHM
*L_UNIT 1 HENRY

*NAME_MAP
*3 clk
*4 duty[0]
*5 duty[1]
*6 duty[2]
*7 duty[3]
*8 duty[4]
*9 duty[5]
*10 duty[6]
*11 duty[7]
*12 duty[8]
*13 enable
*14 pwm
*15 rst
*16 _000_
*17 _001_
*18 _002_
*19 _003_
*20 _004_
*21 _005_
*22 _006_
*23 _007_
*24 _008_
*25 _009_
*26 _010_
*27 _011_
*28 _012_
*29 _013_
*30 _014_
*31 _015_
*32 _016_
*33 _017_
*34 _018_
*35 _019_
*36 _020_
*37 _021_
*38 _022_
*39 _023_
*40 _024_
*41 _025_
*42 _026_
*43 _027_
*44 _028_
*45 _029_
*46 _030_
*47 _031_
*48 _032_
*49 _033_
*50 _034_
*51 _035_
*52 _036_
*53 _037_
*54 _038_
*55 _039_
*56 _040_
*57 _041_
*58 _042_
*59 _043_
*60 _044_
*61 _045_
*62 _046_
*63 _047_
*64 _048_
*65 _049_
*66 _050_
*67 _051_
*68 _052_
*69 _053_
*70 _054_
*71 _055_
*72 _056_
*73 _057_
*74 _058_
*75 _059_
*76 _060_
*77 _061_
*78 _062_
*79 _063_
*80 _064_
*81 _065_
*82 _066_
*83 _067_
*84 _068_
*85 _069_
*86 _070_
*87 _071_
*88 _072_
*89 _073_
*90 _074_
*91 _075_
*92 active_duty\[0\]
*93 active_duty\[1\]
*94 active_duty\[2\]
*95 active_duty\[3\]
*96 active_duty\[4\]
*97 active_duty\[5\]
*98 active_duty\[6\]
*99 active_duty\[7\]
*100 active_duty\[8\]
*101 active_enable
*102 clknet_0_clk
*103 clknet_2_0__leaf_clk
*104 clknet_2_1__leaf_clk
*105 clknet_2_2__leaf_clk
*106 clknet_2_3__leaf_clk
*107 counter\[0\]
*108 counter\[1\]
*109 counter\[2\]
*110 counter\[3\]
*111 counter\[4\]
*112 counter\[5\]
*113 counter\[6\]
*114 counter\[7\]
*115 net1
*116 net10
*117 net11
*118 net12
*119 net13
*120 net14
*121 net15
*122 net16
*123 net2
*124 net3
*125 net4
*126 net5
*127 net6
*128 net7
*129 net8
*130 net9
*131 FILLER_0_104
*132 FILLER_0_138
*133 FILLER_0_172
*134 FILLER_0_2
*135 FILLER_0_206
*136 FILLER_0_240
*137 FILLER_0_274
*138 FILLER_0_290
*139 FILLER_0_294
*140 FILLER_0_36
*141 FILLER_0_70
*142 FILLER_10_104
*143 FILLER_10_107
*144 FILLER_10_123
*145 FILLER_10_127
*146 FILLER_10_129
*147 FILLER_10_141
*148 FILLER_10_173
*149 FILLER_10_177
*150 FILLER_10_241
*151 FILLER_10_247
*152 FILLER_10_279
*153 FILLER_10_31
*154 FILLER_10_37
*155 FILLER_10_45
*156 FILLER_10_52
*157 FILLER_10_68
*158 FILLER_10_70
*159 FILLER_10_88
*160 FILLER_11_10
*161 FILLER_11_102
*162 FILLER_11_106
*163 FILLER_11_108
*164 FILLER_11_117
*165 FILLER_11_133
*166 FILLER_11_137
*167 FILLER_11_139
*168 FILLER_11_142
*169 FILLER_11_2
*170 FILLER_11_206
*171 FILLER_11_212
*172 FILLER_11_276
*173 FILLER_11_28
*174 FILLER_11_282
*175 FILLER_11_290
*176 FILLER_11_294
*177 FILLER_11_30
*178 FILLER_11_41
*179 FILLER_11_51
*180 FILLER_11_55
*181 FILLER_11_64
*182 FILLER_11_68
*183 FILLER_11_72
*184 FILLER_11_76
*185 FILLER_11_86
*186 FILLER_12_103
*187 FILLER_12_126
*188 FILLER_12_140
*189 FILLER_12_172
*190 FILLER_12_174
*191 FILLER_12_177
*192 FILLER_12_2
*193 FILLER_12_241
*194 FILLER_12_247
*195 FILLER_12_279
*196 FILLER_12_34
*197 FILLER_12_87
*198 FILLER_13_10
*199 FILLER_13_142
*200 FILLER_13_206
*201 FILLER_13_21
*202 FILLER_13_212
*203 FILLER_13_276
*204 FILLER_13_282
*205 FILLER_13_290
*206 FILLER_13_294
*207 FILLER_13_37
*208 FILLER_13_39
*209 FILLER_13_69
*210 FILLER_13_72
*211 FILLER_13_74
*212 FILLER_13_83
*213 FILLER_13_87
*214 FILLER_13_89
*215 FILLER_14_101
*216 FILLER_14_107
*217 FILLER_14_115
*218 FILLER_14_154
*219 FILLER_14_170
*220 FILLER_14_174
*221 FILLER_14_177
*222 FILLER_14_2
*223 FILLER_14_22
*224 FILLER_14_241
*225 FILLER_14_247
*226 FILLER_14_279
*227 FILLER_14_30
*228 FILLER_14_34
*229 FILLER_14_37
*230 FILLER_14_6
*231 FILLER_14_69
*232 FILLER_14_71
*233 FILLER_14_8
*234 FILLER_15_128
*235 FILLER_15_136
*236 FILLER_15_142
*237 FILLER_15_206
*238 FILLER_15_212
*239 FILLER_15_24
*240 FILLER_15_276
*241 FILLER_15_282
*242 FILLER_15_290
*243 FILLER_15_294
*244 FILLER_15_56
*245 FILLER_15_64
*246 FILLER_15_68
*247 FILLER_15_72
*248 FILLER_15_96
*249 FILLER_16_103
*250 FILLER_16_107
*251 FILLER_16_171
*252 FILLER_16_177
*253 FILLER_16_18
*254 FILLER_16_241
*255 FILLER_16_247
*256 FILLER_16_279
*257 FILLER_16_34
*258 FILLER_16_37
*259 FILLER_16_53
*260 FILLER_16_61
*261 FILLER_16_70
*262 FILLER_16_86
*263 FILLER_16_95
*264 FILLER_17_10
*265 FILLER_17_117
*266 FILLER_17_121
*267 FILLER_17_127
*268 FILLER_17_135
*269 FILLER_17_139
*270 FILLER_17_154
*271 FILLER_17_186
*272 FILLER_17_202
*273 FILLER_17_212
*274 FILLER_17_26
*275 FILLER_17_276
*276 FILLER_17_282
*277 FILLER_17_290
*278 FILLER_17_294
*279 FILLER_17_34
*280 FILLER_17_38
*281 FILLER_17_40
*282 FILLER_17_72
*283 FILLER_17_86
*284 FILLER_17_88
*285 FILLER_17_99
*286 FILLER_18_122
*287 FILLER_18_153
*288 FILLER_18_169
*289 FILLER_18_173
*290 FILLER_18_177
*291 FILLER_18_20
*292 FILLER_18_24
*293 FILLER_18_241
*294 FILLER_18_247
*295 FILLER_18_26
*296 FILLER_18_279
*297 FILLER_18_37
*298 FILLER_18_45
*299 FILLER_19_104
*300 FILLER_19_112
*301 FILLER_19_116
*302 FILLER_19_118
*303 FILLER_19_123
*304 FILLER_19_139
*305 FILLER_19_142
*306 FILLER_19_2
*307 FILLER_19_206
*308 FILLER_19_212
*309 FILLER_19_276
*310 FILLER_19_282
*311 FILLER_19_290
*312 FILLER_19_294
*313 FILLER_19_46
*314 FILLER_19_62
*315 FILLER_19_72
*316 FILLER_19_74
*317 FILLER_1_136
*318 FILLER_1_142
*319 FILLER_1_2
*320 FILLER_1_206
*321 FILLER_1_212
*322 FILLER_1_276
*323 FILLER_1_282
*324 FILLER_1_290
*325 FILLER_1_294
*326 FILLER_1_66
*327 FILLER_1_72
*328 FILLER_20_10
*329 FILLER_20_101
*330 FILLER_20_107
*331 FILLER_20_139
*332 FILLER_20_141
*333 FILLER_20_147
*334 FILLER_20_163
*335 FILLER_20_171
*336 FILLER_20_177
*337 FILLER_20_18
*338 FILLER_20_22
*339 FILLER_20_24
*340 FILLER_20_241
*341 FILLER_20_247
*342 FILLER_20_279
*343 FILLER_20_32
*344 FILLER_20_34
*345 FILLER_20_37
*346 FILLER_21_106
*347 FILLER_21_114
*348 FILLER_21_118
*349 FILLER_21_124
*350 FILLER_21_154
*351 FILLER_21_186
*352 FILLER_21_20
*353 FILLER_21_202
*354 FILLER_21_212
*355 FILLER_21_276
*356 FILLER_21_282
*357 FILLER_21_290
*358 FILLER_21_294
*359 FILLER_21_36
*360 FILLER_21_40
*361 FILLER_21_42
*362 FILLER_21_48
*363 FILLER_21_52
*364 FILLER_21_61
*365 FILLER_21_68
*366 FILLER_21_72
*367 FILLER_21_88
*368 FILLER_21_96
*369 FILLER_22_113
*370 FILLER_22_146
*371 FILLER_22_16
*372 FILLER_22_162
*373 FILLER_22_170
*374 FILLER_22_174
*375 FILLER_22_177
*376 FILLER_22_20
*377 FILLER_22_241
*378 FILLER_22_247
*379 FILLER_22_27
*380 FILLER_22_279
*381 FILLER_22_37
*382 FILLER_22_45
*383 FILLER_22_47
*384 FILLER_22_77
*385 FILLER_22_93
*386 FILLER_22_95
*387 FILLER_23_10
*388 FILLER_23_149
*389 FILLER_23_181
*390 FILLER_23_197
*391 FILLER_23_205
*392 FILLER_23_209
*393 FILLER_23_212
*394 FILLER_23_276
*395 FILLER_23_282
*396 FILLER_23_290
*397 FILLER_23_294
*398 FILLER_23_49
*399 FILLER_23_65
*400 FILLER_24_10
*401 FILLER_24_103
*402 FILLER_24_107
*403 FILLER_24_119
*404 FILLER_24_156
*405 FILLER_24_172
*406 FILLER_24_174
*407 FILLER_24_177
*408 FILLER_24_241
*409 FILLER_24_247
*410 FILLER_24_26
*411 FILLER_24_279
*412 FILLER_24_34
*413 FILLER_24_37
*414 FILLER_24_39
*415 FILLER_24_90
*416 FILLER_24_92
*417 FILLER_25_101
*418 FILLER_25_130
*419 FILLER_25_138
*420 FILLER_25_142
*421 FILLER_25_19
*422 FILLER_25_206
*423 FILLER_25_212
*424 FILLER_25_276
*425 FILLER_25_282
*426 FILLER_25_290
*427 FILLER_25_294
*428 FILLER_25_51
*429 FILLER_25_67
*430 FILLER_25_69
*431 FILLER_25_72
*432 FILLER_25_88
*433 FILLER_25_95
*434 FILLER_26_107
*435 FILLER_26_115
*436 FILLER_26_146
*437 FILLER_26_16
*438 FILLER_26_162
*439 FILLER_26_170
*440 FILLER_26_174
*441 FILLER_26_177
*442 FILLER_26_2
*443 FILLER_26_241
*444 FILLER_26_247
*445 FILLER_26_279
*446 FILLER_26_32
*447 FILLER_26_34
*448 FILLER_26_43
*449 FILLER_26_51
*450 FILLER_26_61
*451 FILLER_26_71
*452 FILLER_26_78
*453 FILLER_26_82
*454 FILLER_26_84
*455 FILLER_27_101
*456 FILLER_27_133
*457 FILLER_27_137
*458 FILLER_27_139
*459 FILLER_27_142
*460 FILLER_27_2
*461 FILLER_27_206
*462 FILLER_27_212
*463 FILLER_27_276
*464 FILLER_27_282
*465 FILLER_27_290
*466 FILLER_27_294
*467 FILLER_27_32
*468 FILLER_27_62
*469 FILLER_28_102
*470 FILLER_28_104
*471 FILLER_28_107
*472 FILLER_28_171
*473 FILLER_28_177
*474 FILLER_28_2
*475 FILLER_28_241
*476 FILLER_28_247
*477 FILLER_28_279
*478 FILLER_28_34
*479 FILLER_28_37
*480 FILLER_28_53
*481 FILLER_28_62
*482 FILLER_28_94
*483 FILLER_29_136
*484 FILLER_29_142
*485 FILLER_29_2
*486 FILLER_29_206
*487 FILLER_29_212
*488 FILLER_29_276
*489 FILLER_29_282
*490 FILLER_29_290
*491 FILLER_29_294
*492 FILLER_29_66
*493 FILLER_29_72
*494 FILLER_2_101
*495 FILLER_2_107
*496 FILLER_2_171
*497 FILLER_2_177
*498 FILLER_2_2
*499 FILLER_2_241
*500 FILLER_2_247
*501 FILLER_2_279
*502 FILLER_2_34
*503 FILLER_2_37
*504 FILLER_30_101
*505 FILLER_30_107
*506 FILLER_30_171
*507 FILLER_30_177
*508 FILLER_30_2
*509 FILLER_30_241
*510 FILLER_30_247
*511 FILLER_30_279
*512 FILLER_30_34
*513 FILLER_30_37
*514 FILLER_31_136
*515 FILLER_31_142
*516 FILLER_31_2
*517 FILLER_31_206
*518 FILLER_31_212
*519 FILLER_31_276
*520 FILLER_31_282
*521 FILLER_31_290
*522 FILLER_31_294
*523 FILLER_31_66
*524 FILLER_31_72
*525 FILLER_32_101
*526 FILLER_32_107
*527 FILLER_32_171
*528 FILLER_32_177
*529 FILLER_32_2
*530 FILLER_32_241
*531 FILLER_32_247
*532 FILLER_32_279
*533 FILLER_32_34
*534 FILLER_32_37
*535 FILLER_33_136
*536 FILLER_33_142
*537 FILLER_33_2
*538 FILLER_33_206
*539 FILLER_33_212
*540 FILLER_33_276
*541 FILLER_33_282
*542 FILLER_33_290
*543 FILLER_33_294
*544 FILLER_33_66
*545 FILLER_33_72
*546 FILLER_34_101
*547 FILLER_34_107
*548 FILLER_34_171
*549 FILLER_34_177
*550 FILLER_34_2
*551 FILLER_34_241
*552 FILLER_34_247
*553 FILLER_34_279
*554 FILLER_34_34
*555 FILLER_34_37
*556 FILLER_35_136
*557 FILLER_35_142
*558 FILLER_35_2
*559 FILLER_35_206
*560 FILLER_35_212
*561 FILLER_35_276
*562 FILLER_35_282
*563 FILLER_35_290
*564 FILLER_35_294
*565 FILLER_35_66
*566 FILLER_35_72
*567 FILLER_36_104
*568 FILLER_36_138
*569 FILLER_36_172
*570 FILLER_36_2
*571 FILLER_36_206
*572 FILLER_36_240
*573 FILLER_36_274
*574 FILLER_36_290
*575 FILLER_36_294
*576 FILLER_36_36
*577 FILLER_36_70
*578 FILLER_3_136
*579 FILLER_3_142
*580 FILLER_3_2
*581 FILLER_3_206
*582 FILLER_3_212
*583 FILLER_3_276
*584 FILLER_3_282
*585 FILLER_3_290
*586 FILLER_3_294
*587 FILLER_3_66
*588 FILLER_3_72
*589 FILLER_4_101
*590 FILLER_4_107
*591 FILLER_4_171
*592 FILLER_4_177
*593 FILLER_4_2
*594 FILLER_4_241
*595 FILLER_4_247
*596 FILLER_4_279
*597 FILLER_4_34
*598 FILLER_4_37
*599 FILLER_5_136
*600 FILLER_5_142
*601 FILLER_5_2
*602 FILLER_5_206
*603 FILLER_5_212
*604 FILLER_5_276
*605 FILLER_5_282
*606 FILLER_5_290
*607 FILLER_5_294
*608 FILLER_5_66
*609 FILLER_5_72
*610 FILLER_6_101
*611 FILLER_6_107
*612 FILLER_6_171
*613 FILLER_6_177
*614 FILLER_6_2
*615 FILLER_6_241
*616 FILLER_6_247
*617 FILLER_6_279
*618 FILLER_6_34
*619 FILLER_6_37
*620 FILLER_7_116
*621 FILLER_7_132
*622 FILLER_7_142
*623 FILLER_7_2
*624 FILLER_7_206
*625 FILLER_7_212
*626 FILLER_7_276
*627 FILLER_7_282
*628 FILLER_7_290
*629 FILLER_7_294
*630 FILLER_7_66
*631 FILLER_7_72
*632 FILLER_7_80
*633 FILLER_7_84
*634 FILLER_7_86
*635 FILLER_8_104
*636 FILLER_8_107
*637 FILLER_8_111
*638 FILLER_8_142
*639 FILLER_8_174
*640 FILLER_8_177
*641 FILLER_8_2
*642 FILLER_8_241
*643 FILLER_8_247
*644 FILLER_8_279
*645 FILLER_8_34
*646 FILLER_8_37
*647 FILLER_8_53
*648 FILLER_8_84
*649 FILLER_8_88
*650 FILLER_8_90
*651 FILLER_8_96
*652 FILLER_9_107
*653 FILLER_9_109
*654 FILLER_9_136
*655 FILLER_9_142
*656 FILLER_9_18
*657 FILLER_9_2
*658 FILLER_9_206
*659 FILLER_9_212
*660 FILLER_9_26
*661 FILLER_9_276
*662 FILLER_9_282
*663 FILLER_9_290
*664 FILLER_9_294
*665 FILLER_9_30
*666 FILLER_9_60
*667 FILLER_9_64
*668 FILLER_9_72
*669 FILLER_9_76
*670 FILLER_9_91
*671 PHY_EDGE_ROW_0_Left_37
*672 PHY_EDGE_ROW_0_Right_0
*673 PHY_EDGE_ROW_10_Left_47
*674 PHY_EDGE_ROW_10_Right_10
*675 PHY_EDGE_ROW_11_Left_48
*676 PHY_EDGE_ROW_11_Right_11
*677 PHY_EDGE_ROW_12_Left_49
*678 PHY_EDGE_ROW_12_Right_12
*679 PHY_EDGE_ROW_13_Left_50
*680 PHY_EDGE_ROW_13_Right_13
*681 PHY_EDGE_ROW_14_Left_51
*682 PHY_EDGE_ROW_14_Right_14
*683 PHY_EDGE_ROW_15_Left_52
*684 PHY_EDGE_ROW_15_Right_15
*685 PHY_EDGE_ROW_16_Left_53
*686 PHY_EDGE_ROW_16_Right_16
*687 PHY_EDGE_ROW_17_Left_54
*688 PHY_EDGE_ROW_17_Right_17
*689 PHY_EDGE_ROW_18_Left_55
*690 PHY_EDGE_ROW_18_Right_18
*691 PHY_EDGE_ROW_19_Left_56
*692 PHY_EDGE_ROW_19_Right_19
*693 PHY_EDGE_ROW_1_Left_38
*694 PHY_EDGE_ROW_1_Right_1
*695 PHY_EDGE_ROW_20_Left_57
*696 PHY_EDGE_ROW_20_Right_20
*697 PHY_EDGE_ROW_21_Left_58
*698 PHY_EDGE_ROW_21_Right_21
*699 PHY_EDGE_ROW_22_Left_59
*700 PHY_EDGE_ROW_22_Right_22
*701 PHY_EDGE_ROW_23_Left_60
*702 PHY_EDGE_ROW_23_Right_23
*703 PHY_EDGE_ROW_24_Left_61
*704 PHY_EDGE_ROW_24_Right_24
*705 PHY_EDGE_ROW_25_Left_62
*706 PHY_EDGE_ROW_25_Right_25
*707 PHY_EDGE_ROW_26_Left_63
*708 PHY_EDGE_ROW_26_Right_26
*709 PHY_EDGE_ROW_27_Left_64
*710 PHY_EDGE_ROW_27_Right_27
*711 PHY_EDGE_ROW_28_Left_65
*712 PHY_EDGE_ROW_28_Right_28
*713 PHY_EDGE_ROW_29_Left_66
*714 PHY_EDGE_ROW_29_Right_29
*715 PHY_EDGE_ROW_2_Left_39
*716 PHY_EDGE_ROW_2_Right_2
*717 PHY_EDGE_ROW_30_Left_67
*718 PHY_EDGE_ROW_30_Right_30
*719 PHY_EDGE_ROW_31_Left_68
*720 PHY_EDGE_ROW_31_Right_31
*721 PHY_EDGE_ROW_32_Left_69
*722 PHY_EDGE_ROW_32_Right_32
*723 PHY_EDGE_ROW_33_Left_70
*724 PHY_EDGE_ROW_33_Right_33
*725 PHY_EDGE_ROW_34_Left_71
*726 PHY_EDGE_ROW_34_Right_34
*727 PHY_EDGE_ROW_35_Left_72
*728 PHY_EDGE_ROW_35_Right_35
*729 PHY_EDGE_ROW_36_Left_73
*730 PHY_EDGE_ROW_36_Right_36
*731 PHY_EDGE_ROW_3_Left_40
*732 PHY_EDGE_ROW_3_Right_3
*733 PHY_EDGE_ROW_4_Left_41
*734 PHY_EDGE_ROW_4_Right_4
*735 PHY_EDGE_ROW_5_Left_42
*736 PHY_EDGE_ROW_5_Right_5
*737 PHY_EDGE_ROW_6_Left_43
*738 PHY_EDGE_ROW_6_Right_6
*739 PHY_EDGE_ROW_7_Left_44
*740 PHY_EDGE_ROW_7_Right_7
*741 PHY_EDGE_ROW_8_Left_45
*742 PHY_EDGE_ROW_8_Right_8
*743 PHY_EDGE_ROW_9_Left_46
*744 PHY_EDGE_ROW_9_Right_9
*745 TAP_TAPCELL_ROW_0_74
*746 TAP_TAPCELL_ROW_0_75
*747 TAP_TAPCELL_ROW_0_76
*748 TAP_TAPCELL_ROW_0_77
*749 TAP_TAPCELL_ROW_0_78
*750 TAP_TAPCELL_ROW_0_79
*751 TAP_TAPCELL_ROW_0_80
*752 TAP_TAPCELL_ROW_0_81
*753 TAP_TAPCELL_ROW_10_118
*754 TAP_TAPCELL_ROW_10_119
*755 TAP_TAPCELL_ROW_10_120
*756 TAP_TAPCELL_ROW_10_121
*757 TAP_TAPCELL_ROW_11_122
*758 TAP_TAPCELL_ROW_11_123
*759 TAP_TAPCELL_ROW_11_124
*760 TAP_TAPCELL_ROW_11_125
*761 TAP_TAPCELL_ROW_12_126
*762 TAP_TAPCELL_ROW_12_127
*763 TAP_TAPCELL_ROW_12_128
*764 TAP_TAPCELL_ROW_12_129
*765 TAP_TAPCELL_ROW_13_130
*766 TAP_TAPCELL_ROW_13_131
*767 TAP_TAPCELL_ROW_13_132
*768 TAP_TAPCELL_ROW_13_133
*769 TAP_TAPCELL_ROW_14_134
*770 TAP_TAPCELL_ROW_14_135
*771 TAP_TAPCELL_ROW_14_136
*772 TAP_TAPCELL_ROW_14_137
*773 TAP_TAPCELL_ROW_15_138
*774 TAP_TAPCELL_ROW_15_139
*775 TAP_TAPCELL_ROW_15_140
*776 TAP_TAPCELL_ROW_15_141
*777 TAP_TAPCELL_ROW_16_142
*778 TAP_TAPCELL_ROW_16_143
*779 TAP_TAPCELL_ROW_16_144
*780 TAP_TAPCELL_ROW_16_145
*781 TAP_TAPCELL_ROW_17_146
*782 TAP_TAPCELL_ROW_17_147
*783 TAP_TAPCELL_ROW_17_148
*784 TAP_TAPCELL_ROW_17_149
*785 TAP_TAPCELL_ROW_18_150
*786 TAP_TAPCELL_ROW_18_151
*787 TAP_TAPCELL_ROW_18_152
*788 TAP_TAPCELL_ROW_18_153
*789 TAP_TAPCELL_ROW_19_154
*790 TAP_TAPCELL_ROW_19_155
*791 TAP_TAPCELL_ROW_19_156
*792 TAP_TAPCELL_ROW_19_157
*793 TAP_TAPCELL_ROW_1_82
*794 TAP_TAPCELL_ROW_1_83
*795 TAP_TAPCELL_ROW_1_84
*796 TAP_TAPCELL_ROW_1_85
*797 TAP_TAPCELL_ROW_20_158
*798 TAP_TAPCELL_ROW_20_159
*799 TAP_TAPCELL_ROW_20_160
*800 TAP_TAPCELL_ROW_20_161
*801 TAP_TAPCELL_ROW_21_162
*802 TAP_TAPCELL_ROW_21_163
*803 TAP_TAPCELL_ROW_21_164
*804 TAP_TAPCELL_ROW_21_165
*805 TAP_TAPCELL_ROW_22_166
*806 TAP_TAPCELL_ROW_22_167
*807 TAP_TAPCELL_ROW_22_168
*808 TAP_TAPCELL_ROW_22_169
*809 TAP_TAPCELL_ROW_23_170
*810 TAP_TAPCELL_ROW_23_171
*811 TAP_TAPCELL_ROW_23_172
*812 TAP_TAPCELL_ROW_23_173
*813 TAP_TAPCELL_ROW_24_174
*814 TAP_TAPCELL_ROW_24_175
*815 TAP_TAPCELL_ROW_24_176
*816 TAP_TAPCELL_ROW_24_177
*817 TAP_TAPCELL_ROW_25_178
*818 TAP_TAPCELL_ROW_25_179
*819 TAP_TAPCELL_ROW_25_180
*820 TAP_TAPCELL_ROW_25_181
*821 TAP_TAPCELL_ROW_26_182
*822 TAP_TAPCELL_ROW_26_183
*823 TAP_TAPCELL_ROW_26_184
*824 TAP_TAPCELL_ROW_26_185
*825 TAP_TAPCELL_ROW_27_186
*826 TAP_TAPCELL_ROW_27_187
*827 TAP_TAPCELL_ROW_27_188
*828 TAP_TAPCELL_ROW_27_189
*829 TAP_TAPCELL_ROW_28_190
*830 TAP_TAPCELL_ROW_28_191
*831 TAP_TAPCELL_ROW_28_192
*832 TAP_TAPCELL_ROW_28_193
*833 TAP_TAPCELL_ROW_29_194
*834 TAP_TAPCELL_ROW_29_195
*835 TAP_TAPCELL_ROW_29_196
*836 TAP_TAPCELL_ROW_29_197
*837 TAP_TAPCELL_ROW_2_86
*838 TAP_TAPCELL_ROW_2_87
*839 TAP_TAPCELL_ROW_2_88
*840 TAP_TAPCELL_ROW_2_89
*841 TAP_TAPCELL_ROW_30_198
*842 TAP_TAPCELL_ROW_30_199
*843 TAP_TAPCELL_ROW_30_200
*844 TAP_TAPCELL_ROW_30_201
*845 TAP_TAPCELL_ROW_31_202
*846 TAP_TAPCELL_ROW_31_203
*847 TAP_TAPCELL_ROW_31_204
*848 TAP_TAPCELL_ROW_31_205
*849 TAP_TAPCELL_ROW_32_206
*850 TAP_TAPCELL_ROW_32_207
*851 TAP_TAPCELL_ROW_32_208
*852 TAP_TAPCELL_ROW_32_209
*853 TAP_TAPCELL_ROW_33_210
*854 TAP_TAPCELL_ROW_33_211
*855 TAP_TAPCELL_ROW_33_212
*856 TAP_TAPCELL_ROW_33_213
*857 TAP_TAPCELL_ROW_34_214
*858 TAP_TAPCELL_ROW_34_215
*859 TAP_TAPCELL_ROW_34_216
*860 TAP_TAPCELL_ROW_34_217
*861 TAP_TAPCELL_ROW_35_218
*862 TAP_TAPCELL_ROW_35_219
*863 TAP_TAPCELL_ROW_35_220
*864 TAP_TAPCELL_ROW_35_221
*865 TAP_TAPCELL_ROW_36_222
*866 TAP_TAPCELL_ROW_36_223
*867 TAP_TAPCELL_ROW_36_224
*868 TAP_TAPCELL_ROW_36_225
*869 TAP_TAPCELL_ROW_36_226
*870 TAP_TAPCELL_ROW_36_227
*871 TAP_TAPCELL_ROW_36_228
*872 TAP_TAPCELL_ROW_36_229
*873 TAP_TAPCELL_ROW_3_90
*874 TAP_TAPCELL_ROW_3_91
*875 TAP_TAPCELL_ROW_3_92
*876 TAP_TAPCELL_ROW_3_93
*877 TAP_TAPCELL_ROW_4_94
*878 TAP_TAPCELL_ROW_4_95
*879 TAP_TAPCELL_ROW_4_96
*880 TAP_TAPCELL_ROW_4_97
*881 TAP_TAPCELL_ROW_5_100
*882 TAP_TAPCELL_ROW_5_101
*883 TAP_TAPCELL_ROW_5_98
*884 TAP_TAPCELL_ROW_5_99
*885 TAP_TAPCELL_ROW_6_102
*886 TAP_TAPCELL_ROW_6_103
*887 TAP_TAPCELL_ROW_6_104
*888 TAP_TAPCELL_ROW_6_105
*889 TAP_TAPCELL_ROW_7_106
*890 TAP_TAPCELL_ROW_7_107
*891 TAP_TAPCELL_ROW_7_108
*892 TAP_TAPCELL_ROW_7_109
*893 TAP_TAPCELL_ROW_8_110
*894 TAP_TAPCELL_ROW_8_111
*895 TAP_TAPCELL_ROW_8_112
*896 TAP_TAPCELL_ROW_8_113
*897 TAP_TAPCELL_ROW_9_114
*898 TAP_TAPCELL_ROW_9_115
*899 TAP_TAPCELL_ROW_9_116
*900 TAP_TAPCELL_ROW_9_117
*901 _076_
*902 _077_
*903 _078_
*904 _079_
*905 _080_
*906 _081_
*907 _082_
*908 _083_
*909 _084_
*910 _085_
*911 _086_
*912 _087_
*913 _088_
*914 _089_
*915 _090_
*916 _091_
*917 _092_
*918 _093_
*919 _094_
*920 _095_
*921 _096_
*922 _097_
*923 _098_
*924 _099_
*925 _100_
*926 _101_
*927 _102_
*928 _103_
*929 _104_
*930 _105_
*931 _106_
*932 _107_
*933 _108_
*934 _109_
*935 _110_
*936 _111_
*937 _112_
*938 _113_
*939 _114_
*940 _115_
*941 _116_
*942 _117_
*943 _118_
*944 _119_
*945 _120_
*946 _121_
*947 _122_
*948 _123_
*949 _124_
*950 _125_
*951 _126_
*952 _127_
*953 _128_
*954 _129_
*955 _130_
*956 _131_
*957 _132_
*958 _133_
*959 _134_
*960 _135_
*961 _136_
*962 _137_
*963 _138_
*964 _139_
*965 _140_
*966 _141_
*967 _142_
*968 _143_
*969 _144_
*970 _145_
*971 _146_
*972 _147_
*973 _148_
*974 _149_
*975 _150_
*976 _151_
*977 _152_
*978 _153_
*979 _154_
*980 _155_
*981 _156_
*982 _157_
*983 _158_
*984 _159_
*985 _160_
*986 _161_
*987 _162_
*988 _163_
*989 _164_
*990 _165_
*991 _166_
*992 _167_
*993 _168_
*994 _169_
*995 _170_
*996 clkbuf_0_clk
*997 clkbuf_2_0__f_clk
*998 clkbuf_2_1__f_clk
*999 clkbuf_2_2__f_clk
*1000 clkbuf_2_3__f_clk
*1001 clkload0
*1002 fanout14
*1003 fanout15
*1004 fanout16
*1005 input1
*1006 input10
*1007 input11
*1008 input2
*1009 input3
*1010 input4
*1011 input5
*1012 input6
*1013 input7
*1014 input8
*1015 input9
*1016 output12
*1017 wire13

*PORTS
clk I
duty[0] I
duty[1] I
duty[2] I
duty[3] I
duty[4] I
duty[5] I
duty[6] I
duty[7] I
duty[8] I
enable I
pwm O
rst I

*D_NET *3 0.00871382
*CONN
*P clk I
*I *996:I I *D gf180mcu_fd_sc_mcu7t5v0__clkbuf_16
*CAP
1 clk 0.00281609
2 *996:I 0.000159958
3 *3:10 0.00297605
4 *3:10 *925:A2 0.000250466
5 *3:10 *945:A1 5.12872e-06
6 *3:10 *945:B 6.76904e-05
7 *3:10 *946:I 7.34025e-05
8 *3:10 *974:A1 6.55399e-05
9 *3:10 *974:B 5.65501e-06
10 *3:10 *975:A1 0.000494673
11 *3:10 *975:A2 0.000516916
12 *3:10 *993:CLK 0.000146542
13 *3:10 *995:D 4.22072e-05
14 *3:10 *99:27 0.00099275
15 *3:10 *100:10 0.000100752
16 *3:10 *117:8 0
17 *3:10 *117:93 0
18 *3:10 *121:12 0
*RES
1 clk *3:10 30.864 
2 *3:10 *996:I 5.436 
*END

*D_NET *4 0.00258211
*CONN
*P duty[0] I
*I *1005:I I *D gf180mcu_fd_sc_mcu7t5v0__buf_2
*CAP
1 duty[0] 0.000715437
2 *1005:I 0.000715437
3 *1005:I *918:A1 9.41125e-05
4 *1005:I *919:A1 0.000346997
5 *1005:I *1008:I 3.17907e-05
6 *1005:I *1009:I 0.000568651
7 *1005:I *1011:I 1.33033e-05
8 *1005:I *47:32 8.06365e-05
9 *1005:I *47:34 1.57479e-05
*RES
1 duty[0] *1005:I 17.372 
*END

*D_NET *5 0.00111104
*CONN
*P duty[1] I
*I *1008:I I *D gf180mcu_fd_sc_mcu7t5v0__buf_2
*CAP
1 duty[1] 0.00022488
2 *1008:I 0.00022488
3 *1008:I *1009:I 0.00053489
4 *1008:I *1011:I 9.4595e-05
5 *1005:I *1008:I 3.17907e-05
*RES
1 duty[1] *1008:I 12.692 
*END

*D_NET *6 0.00174829
*CONN
*P duty[2] I
*I *1009:I I *D gf180mcu_fd_sc_mcu7t5v0__buf_2
*CAP
1 duty[2] 0.000322374
2 *1009:I 0.000322374
3 *1009:I *918:A1 0
4 *1005:I *1009:I 0.000568651
5 *1008:I *1009:I 0.00053489
*RES
1 duty[2] *1009:I 13.94 
*END

*D_NET *7 0.000930499
*CONN
*P duty[3] I
*I *1010:I I *D gf180mcu_fd_sc_mcu7t5v0__buf_2
*CAP
1 duty[3] 0.000197805
2 *1010:I 0.000197805
3 *1010:I pwm 0.00053489
4 *1010:I *1012:I 0
*RES
1 duty[3] *1010:I 12.172 
*END

*D_NET *8 0.000877073
*CONN
*P duty[4] I
*I *1011:I I *D gf180mcu_fd_sc_mcu7t5v0__buf_2
*CAP
1 duty[4] 0.000384587
2 *1011:I 0.000384587
3 *1005:I *1011:I 1.33033e-05
4 *1008:I *1011:I 9.4595e-05
*RES
1 duty[4] *1011:I 12.484 
*END

*D_NET *9 0.0021831
*CONN
*P duty[5] I
*I *1012:I I *D gf180mcu_fd_sc_mcu7t5v0__buf_2
*CAP
1 duty[5] 0.000476894
2 *1012:I 0.000476894
3 *1012:I *914:A1 2.73715e-06
4 *1012:I *915:A1 0.000414278
5 *1012:I *1006:I 0.000812299
6 *1010:I *1012:I 0
*RES
1 duty[5] *1012:I 15.396 
*END

*D_NET *10 0.00109164
*CONN
*P duty[6] I
*I *1013:I I *D gf180mcu_fd_sc_mcu7t5v0__buf_2
*CAP
1 duty[6] 0.000474498
2 *1013:I 0.000474498
3 *1013:I *914:A1 5.31237e-05
4 *1013:I *1014:I 0
5 *1013:I *1015:I 8.95164e-05
*RES
1 duty[6] *1013:I 13.108 
*END

*D_NET *11 0.000783247
*CONN
*P duty[7] I
*I *1014:I I *D gf180mcu_fd_sc_mcu7t5v0__buf_2
*CAP
1 duty[7] 0.000257106
2 *1014:I 0.000257106
3 *1014:I *1007:I 0.000269035
4 *1013:I *1014:I 0
*RES
1 duty[7] *1014:I 12.172 
*END

*D_NET *12 0.000900107
*CONN
*P duty[8] I
*I *1015:I I *D gf180mcu_fd_sc_mcu7t5v0__buf_2
*CAP
1 duty[8] 0.000398644
2 *1015:I 0.000398644
3 *1015:I *914:A1 1.33033e-05
4 *1013:I *1015:I 8.95164e-05
*RES
1 duty[8] *1015:I 12.484 
*END

*D_NET *13 0.00135607
*CONN
*P enable I
*I *1006:I I *D gf180mcu_fd_sc_mcu7t5v0__buf_2
*CAP
1 enable 0.000271885
2 *1006:I 0.000271885
3 *1012:I *1006:I 0.000812299
*RES
1 enable *1006:I 12.9 
*END

*D_NET *14 0.00123024
*CONN
*P pwm O
*I *1016:Z O *D gf180mcu_fd_sc_mcu7t5v0__buf_2
*CAP
1 pwm 0.000347677
2 *1016:Z 0.000347677
3 pwm *47:32 0
4 *1010:I pwm 0.00053489
*RES
1 *1016:Z pwm 12.9 
*END

*D_NET *15 0.00109107
*CONN
*P rst I
*I *1007:I I *D gf180mcu_fd_sc_mcu7t5v0__buf_2
*CAP
1 rst 0.000411018
2 *1007:I 0.000411018
3 *1007:I *972:B2 0
4 *1014:I *1007:I 0.000269035
*RES
1 rst *1007:I 13.108 
*END

*D_NET *16 0.000964332
*CONN
*I *977:D I *D gf180mcu_fd_sc_mcu7t5v0__dffq_1
*I *948:ZN O *D gf180mcu_fd_sc_mcu7t5v0__aoi21_1
*CAP
1 *977:D 0.000314272
2 *948:ZN 0.000314272
3 *977:D *948:A1 2.38865e-05
4 *977:D *948:A2 0.000256058
5 *977:D *964:A2 5.58447e-05
*RES
1 *948:ZN *977:D 20.288 
*END

*D_NET *17 0.000299494
*CONN
*I *978:D I *D gf180mcu_fd_sc_mcu7t5v0__dffq_1
*I *949:ZN O *D gf180mcu_fd_sc_mcu7t5v0__nand2_1
*CAP
1 *978:D 0.000149747
2 *949:ZN 0.000149747
*RES
1 *949:ZN *978:D 9.936 
*END

*D_NET *18 0.000519949
*CONN
*I *979:D I *D gf180mcu_fd_sc_mcu7t5v0__dffq_1
*I *950:ZN O *D gf180mcu_fd_sc_mcu7t5v0__nand2_1
*CAP
1 *979:D 0.000250698
2 *950:ZN 0.000250698
3 *979:D *979:CLK 0
4 *979:D *93:8 1.85523e-05
*RES
1 *950:ZN *979:D 10.872 
*END

*D_NET *19 0.00119785
*CONN
*I *980:D I *D gf180mcu_fd_sc_mcu7t5v0__dffq_1
*I *951:ZN O *D gf180mcu_fd_sc_mcu7t5v0__oai21_1
*CAP
1 *980:D 0.000197907
2 *951:ZN 0.000197907
3 *980:D *926:A1 0.000250827
4 *980:D *104:35 5.78399e-05
5 *980:D *107:47 0.000112226
6 *980:D *108:17 0.000280581
7 *980:D *108:28 0.000100557
*RES
1 *951:ZN *980:D 20.496 
*END

*D_NET *20 0.000581855
*CONN
*I *981:D I *D gf180mcu_fd_sc_mcu7t5v0__dffq_1
*I *952:Z O *D gf180mcu_fd_sc_mcu7t5v0__or2_1
*CAP
1 *981:D 0.000290928
2 *952:Z 0.000290928
*RES
1 *952:Z *981:D 11.496 
*END

*D_NET *21 0.000654554
*CONN
*I *982:D I *D gf180mcu_fd_sc_mcu7t5v0__dffq_1
*I *953:ZN O *D gf180mcu_fd_sc_mcu7t5v0__nand2_1
*CAP
1 *982:D 0.000304669
2 *953:ZN 0.000304669
3 *982:D *953:A1 1.65142e-05
4 *982:D *122:25 2.87008e-05
*RES
1 *953:ZN *982:D 11.392 
*END

*D_NET *22 0.000442811
*CONN
*I *983:D I *D gf180mcu_fd_sc_mcu7t5v0__dffq_1
*I *954:ZN O *D gf180mcu_fd_sc_mcu7t5v0__nand2_1
*CAP
1 *983:D 0.000152665
2 *954:ZN 0.000152665
3 *983:D *982:CLK 8.14679e-05
4 *983:D *122:16 5.60123e-05
*RES
1 *954:ZN *983:D 10.456 
*END

*D_NET *23 0.000734603
*CONN
*I *984:D I *D gf180mcu_fd_sc_mcu7t5v0__dffq_1
*I *955:ZN O *D gf180mcu_fd_sc_mcu7t5v0__nand2_1
*CAP
1 *984:D 0.000193803
2 *955:ZN 0.000193803
3 *984:D *984:CLK 0.000346997
*RES
1 *955:ZN *984:D 10.872 
*END

*D_NET *24 0.000664253
*CONN
*I *985:D I *D gf180mcu_fd_sc_mcu7t5v0__dffq_1
*I *956:ZN O *D gf180mcu_fd_sc_mcu7t5v0__nand2_1
*CAP
1 *985:D 0.000289916
2 *956:ZN 0.000289916
3 *985:D *956:A1 6.32781e-05
4 *985:D *985:CLK 2.11438e-05
*RES
1 *956:ZN *985:D 11.08 
*END

*D_NET *25 0.000591124
*CONN
*I *986:D I *D gf180mcu_fd_sc_mcu7t5v0__dffq_1
*I *958:ZN O *D gf180mcu_fd_sc_mcu7t5v0__aoi211_1
*CAP
1 *986:D 0.000275959
2 *958:ZN 0.000275959
3 *986:D *92:12 3.92053e-05
*RES
1 *958:ZN *986:D 10.872 
*END

*D_NET *26 0.00110725
*CONN
*I *987:D I *D gf180mcu_fd_sc_mcu7t5v0__dffq_1
*I *960:ZN O *D gf180mcu_fd_sc_mcu7t5v0__aoi211_1
*CAP
1 *987:D 0.000472619
2 *960:ZN 0.000472619
3 *987:D *960:A1 1.40761e-05
4 *987:D *987:CLK 0
5 *987:D *103:10 0.000147933
*RES
1 *960:ZN *987:D 12.224 
*END

*D_NET *27 0.000931755
*CONN
*I *988:D I *D gf180mcu_fd_sc_mcu7t5v0__dffq_1
*I *962:ZN O *D gf180mcu_fd_sc_mcu7t5v0__aoi21_1
*CAP
1 *988:D 0.00034394
2 *962:ZN 0.00034394
3 *988:D *962:A2 0.000209278
4 *988:D *979:CLK 0
5 *988:D *120:80 3.4596e-05
*RES
1 *962:ZN *988:D 11.912 
*END

*D_NET *28 0.000363293
*CONN
*I *989:D I *D gf180mcu_fd_sc_mcu7t5v0__dffq_1
*I *964:ZN O *D gf180mcu_fd_sc_mcu7t5v0__aoi21_1
*CAP
1 *989:D 0.000119027
2 *964:ZN 0.000119027
3 *989:D *964:A1 0.00012524
*RES
1 *964:ZN *989:D 9.936 
*END

*D_NET *29 0.0010334
*CONN
*I *990:D I *D gf180mcu_fd_sc_mcu7t5v0__dffq_1
*I *966:ZN O *D gf180mcu_fd_sc_mcu7t5v0__aoi21_1
*CAP
1 *990:D 8.03908e-05
2 *966:ZN 8.03908e-05
3 *990:D *966:A1 0.00033778
4 *990:D *966:B 0.00033778
5 *990:D *104:12 0.000197059
*RES
1 *966:ZN *990:D 19.456 
*END

*D_NET *30 0.000970269
*CONN
*I *991:D I *D gf180mcu_fd_sc_mcu7t5v0__dffq_1
*I *968:ZN O *D gf180mcu_fd_sc_mcu7t5v0__aoi211_1
*CAP
1 *991:D 0.000289168
2 *968:ZN 0.000289168
3 *991:D *967:A2 0
4 *991:D *968:A1 7.96342e-05
5 *991:D *102:6 0.00010342
6 *991:D *102:11 7.79694e-05
7 *991:D *102:27 8.72143e-05
8 *991:D *102:32 4.36957e-05
*RES
1 *968:ZN *991:D 11.912 
*END

*D_NET *31 0.000726906
*CONN
*I *992:D I *D gf180mcu_fd_sc_mcu7t5v0__dffq_1
*I *971:ZN O *D gf180mcu_fd_sc_mcu7t5v0__nor2_1
*CAP
1 *992:D 0.0001932
2 *971:ZN 0.0001932
3 *992:D *117:25 0.000340506
*RES
1 *971:ZN *992:D 10.664 
*END

*D_NET *32 0.000299494
*CONN
*I *993:D I *D gf180mcu_fd_sc_mcu7t5v0__dffq_1
*I *973:ZN O *D gf180mcu_fd_sc_mcu7t5v0__nor2_1
*CAP
1 *993:D 0.000149747
2 *973:ZN 0.000149747
*RES
1 *973:ZN *993:D 9.936 
*END

*D_NET *33 0.00048212
*CONN
*I *994:D I *D gf180mcu_fd_sc_mcu7t5v0__dffq_1
*I *975:ZN O *D gf180mcu_fd_sc_mcu7t5v0__nor2_1
*CAP
1 *994:D 0.000212135
2 *975:ZN 0.000212135
3 *994:D *105:47 5.78489e-05
*RES
1 *975:ZN *994:D 10.456 
*END

*D_NET *34 0.000391411
*CONN
*I *995:D I *D gf180mcu_fd_sc_mcu7t5v0__dffq_1
*I *976:ZN O *D gf180mcu_fd_sc_mcu7t5v0__aoi21_1
*CAP
1 *995:D 0.000133868
2 *976:ZN 0.000133868
3 *995:D *121:12 8.14679e-05
4 *3:10 *995:D 4.22072e-05
*RES
1 *976:ZN *995:D 10.248 
*END

*D_NET *35 0.0005042
*CONN
*I *958:B I *D gf180mcu_fd_sc_mcu7t5v0__aoi211_1
*I *957:ZN O *D gf180mcu_fd_sc_mcu7t5v0__nor2_1
*CAP
1 *958:B 5.97369e-05
2 *957:ZN 5.97369e-05
3 *958:B *958:C 0.000261696
4 *958:B *92:12 0.000123031
*RES
1 *957:ZN *958:B 19.56 
*END

*D_NET *36 0.00122075
*CONN
*I *960:B I *D gf180mcu_fd_sc_mcu7t5v0__aoi211_1
*I *959:ZN O *D gf180mcu_fd_sc_mcu7t5v0__nor2_1
*CAP
1 *960:B 0.000325197
2 *959:ZN 0.000325197
3 *960:B *929:A1 0.000227088
4 *960:B *959:A2 0.000256274
5 *960:B *960:C 1.823e-05
6 *960:B *979:CLK 0
7 *960:B *103:10 6.87674e-05
*RES
1 *959:ZN *960:B 21.328 
*END

*D_NET *37 0.00106632
*CONN
*I *962:B I *D gf180mcu_fd_sc_mcu7t5v0__aoi21_1
*I *961:ZN O *D gf180mcu_fd_sc_mcu7t5v0__oai21_1
*CAP
1 *962:B 0.000142305
2 *961:ZN 0.000142305
3 *962:B *929:A1 0.000781715
4 *962:B *959:A1 0
*RES
1 *961:ZN *962:B 19.976 
*END

*D_NET *38 0.00297822
*CONN
*I *964:B I *D gf180mcu_fd_sc_mcu7t5v0__aoi21_1
*I *963:ZN O *D gf180mcu_fd_sc_mcu7t5v0__oai21_1
*CAP
1 *964:B 0.000356049
2 *963:ZN 0.000356049
3 *964:B *948:A2 0.000951689
4 *964:B *963:A1 0.000346997
5 *964:B *968:A2 0.000951689
6 *964:B *991:CLK 0
7 *964:B *95:8 1.57479e-05
*RES
1 *963:ZN *964:B 22.992 
*END

*D_NET *39 0.0024823
*CONN
*I *966:B I *D gf180mcu_fd_sc_mcu7t5v0__aoi21_1
*I *965:ZN O *D gf180mcu_fd_sc_mcu7t5v0__oai21_1
*CAP
1 *966:B 0.000432959
2 *965:ZN 0.000432959
3 *966:B *963:B 2.17484e-05
4 *966:B *966:A1 0.000428201
5 *966:B *102:32 0.000231609
6 *966:B *120:12 0.000597045
7 *990:D *966:B 0.00033778
*RES
1 *965:ZN *966:B 23.616 
*END

*D_NET *40 0.00127778
*CONN
*I *968:B I *D gf180mcu_fd_sc_mcu7t5v0__aoi211_1
*I *967:ZN O *D gf180mcu_fd_sc_mcu7t5v0__nor2_1
*CAP
1 *968:B 2.07335e-05
2 *967:ZN 2.07335e-05
3 *968:B *902:I 0.000865238
4 *968:B *952:A1 0.000279926
5 *968:B *117:99 9.11499e-05
*RES
1 *967:ZN *968:B 20.184 
*END

*D_NET *41 0.00450399
*CONN
*I *970:B1 I *D gf180mcu_fd_sc_mcu7t5v0__aoi22_1
*I *975:A1 I *D gf180mcu_fd_sc_mcu7t5v0__nor2_1
*I *972:B1 I *D gf180mcu_fd_sc_mcu7t5v0__aoi22_1
*I *969:ZN O *D gf180mcu_fd_sc_mcu7t5v0__nor2_1
*CAP
1 *970:B1 3.6366e-05
2 *975:A1 0.000535147
3 *972:B1 0
4 *969:ZN 8.82811e-05
5 *41:8 0.000798943
6 *41:6 0.000388443
7 *975:A1 *972:A1 0.00034131
8 *975:A1 *973:A1 0.000224754
9 *975:A1 *973:A2 0.000256274
10 *975:A1 *117:25 9.78351e-06
11 *41:6 *914:A1 1.09486e-05
12 *41:6 *914:A2 0.000169099
13 *41:6 *969:A2 0.000428493
14 *41:6 *970:B2 5.13977e-05
15 *41:6 *972:A2 2.36218e-05
16 *41:8 *914:A1 2.38865e-05
17 *41:8 *972:A2 0.000157034
18 *41:8 *972:B2 0.000148768
19 *41:8 *973:A1 0.000276018
20 *41:8 *973:A2 4.07478e-05
21 *3:10 *975:A1 0.000494673
*RES
1 *969:ZN *41:6 6.268 
2 *41:6 *41:8 3.016 
3 *41:8 *972:B1 4.5 
4 *41:8 *975:A1 19.74 
5 *41:6 *970:B1 4.812 
*END

*D_NET *42 0.000966975
*CONN
*I *971:A2 I *D gf180mcu_fd_sc_mcu7t5v0__nor2_1
*I *970:ZN O *D gf180mcu_fd_sc_mcu7t5v0__aoi22_1
*CAP
1 *971:A2 0.000201956
2 *970:ZN 0.000201956
3 *971:A2 *903:I 5.28381e-05
4 *971:A2 *969:A2 0.000354807
5 *971:A2 *970:A1 0.000155418
6 *971:A2 *117:25 0
*RES
1 *970:ZN *971:A2 20.496 
*END

*D_NET *43 0.000524842
*CONN
*I *973:A2 I *D gf180mcu_fd_sc_mcu7t5v0__nor2_1
*I *972:ZN O *D gf180mcu_fd_sc_mcu7t5v0__aoi22_1
*CAP
1 *973:A2 0.00011391
2 *972:ZN 0.00011391
3 *975:A1 *973:A2 0.000256274
4 *41:8 *973:A2 4.07478e-05
*RES
1 *972:ZN *973:A2 9.936 
*END

*D_NET *44 0.000944863
*CONN
*I *975:A2 I *D gf180mcu_fd_sc_mcu7t5v0__nor2_1
*I *974:ZN O *D gf180mcu_fd_sc_mcu7t5v0__oai21_1
*CAP
1 *975:A2 0.000213974
2 *974:ZN 0.000213974
3 *3:10 *975:A2 0.000516916
*RES
1 *974:ZN *975:A2 21.016 
*END

*D_NET *45 0.000277192
*CONN
*I *937:B2 I *D gf180mcu_fd_sc_mcu7t5v0__oai22_1
*I *901:ZN O *D gf180mcu_fd_sc_mcu7t5v0__clkinv_1
*CAP
1 *937:B2 0.000121631
2 *901:ZN 0.000121631
3 *937:B2 *934:B2 1.32185e-05
4 *937:B2 *937:B1 4.67771e-06
5 *937:B2 *96:23 1.60338e-05
*RES
1 *901:ZN *937:B2 10.04 
*END

*D_NET *46 0.0050284
*CONN
*I *937:A1 I *D gf180mcu_fd_sc_mcu7t5v0__oai22_1
*I *934:B2 I *D gf180mcu_fd_sc_mcu7t5v0__aoi221_1
*I *902:ZN O *D gf180mcu_fd_sc_mcu7t5v0__clkinv_1
*CAP
1 *937:A1 0
2 *934:B2 0.000865662
3 *902:ZN 0.0002364
4 *46:10 0.00110206
5 *934:B2 *937:A2 0.000173451
6 *934:B2 *937:B1 3.4596e-05
7 *934:B2 *951:B 0.00126031
8 *934:B2 *96:8 0
9 *934:B2 *96:23 0
10 *46:10 *952:A1 0.00125053
11 *46:10 *122:33 9.2169e-05
12 *937:B2 *934:B2 1.32185e-05
*RES
1 *902:ZN *46:10 16.724 
2 *46:10 *934:B2 12.924 
3 *46:10 *937:A1 4.5 
*END

*D_NET *47 0.00780397
*CONN
*I *917:A1 I *D gf180mcu_fd_sc_mcu7t5v0__and4_1
*I *916:A2 I *D gf180mcu_fd_sc_mcu7t5v0__nand2_1
*I *915:A2 I *D gf180mcu_fd_sc_mcu7t5v0__nand2_1
*I *919:A2 I *D gf180mcu_fd_sc_mcu7t5v0__nand2_1
*I *920:A2 I *D gf180mcu_fd_sc_mcu7t5v0__nand2_1
*I *921:A2 I *D gf180mcu_fd_sc_mcu7t5v0__nand2_1
*I *918:A2 I *D gf180mcu_fd_sc_mcu7t5v0__nand2_1
*I *922:B I *D gf180mcu_fd_sc_mcu7t5v0__oai21_1
*I *903:ZN O *D gf180mcu_fd_sc_mcu7t5v0__clkinv_1
*CAP
1 *917:A1 0.000208009
2 *916:A2 0
3 *915:A2 0
4 *919:A2 0
5 *920:A2 0
6 *921:A2 0
7 *918:A2 6.7025e-05
8 *922:B 1.11962e-05
9 *903:ZN 0.000427246
10 *47:51 0.000274785
11 *47:47 0.000422457
12 *47:34 0.000283299
13 *47:32 0.0005514
14 *47:22 0.000662109
15 *47:14 0.000265476
16 *47:8 0.000732616
17 *917:A1 *968:A2 0
18 *917:A1 *116:8 4.9736e-05
19 *918:A2 *921:A1 6.40967e-05
20 *918:A2 *923:A2 1.32276e-05
21 *918:A2 *958:A2 4.67771e-06
22 *918:A2 *62:8 0.00016407
23 *918:A2 *124:12 0.000303065
24 *922:B *918:A1 0.000122244
25 *922:B *921:A1 4.18042e-05
26 *47:8 *917:A2 0
27 *47:8 *924:A3 0
28 *47:8 *1016:I 4.15898e-06
29 *47:8 *117:35 0
30 *47:14 *917:A4 3.50983e-05
31 *47:14 *923:A1 0.00032445
32 *47:14 *924:A3 0
33 *47:14 *1016:I 0.000477203
34 *47:22 *917:A3 2.80885e-05
35 *47:22 *964:A2 0.000280581
36 *47:22 *968:A2 6.41072e-05
37 *47:32 *915:A1 4.07478e-05
38 *47:32 *917:A4 4.07478e-05
39 *47:32 *919:A1 6.49297e-05
40 *47:32 *923:A1 0.000181319
41 *47:32 *115:8 0.000465169
42 *47:34 *918:A1 0.000469241
43 *47:34 *921:A1 1.07369e-05
44 *47:34 *115:8 0.00021731
45 *47:47 *919:A1 0
46 *47:47 *920:A1 0.000107043
47 *47:47 *921:A1 5.65788e-06
48 *47:47 *966:A2 0
49 *47:47 *63:10 0
50 *47:47 *124:12 1.92034e-05
51 *47:51 *921:A1 2.39077e-05
52 *47:51 *923:A2 8.44004e-05
53 *47:51 *115:8 2.81522e-06
54 *47:51 *124:12 9.21299e-05
55 pwm *47:32 0
56 *1005:I *47:32 8.06365e-05
57 *1005:I *47:34 1.57479e-05
*RES
1 *903:ZN *47:8 7.412 
2 *47:8 *47:14 1.976 
3 *47:14 *47:22 10.456 
4 *47:22 *47:32 5.096 
5 *47:32 *47:34 1.56 
6 *47:34 *922:B 4.812 
7 *47:34 *47:47 10.56 
8 *47:47 *47:51 1.664 
9 *47:51 *918:A2 14.956 
10 *47:51 *921:A2 4.5 
11 *47:47 *920:A2 4.5 
12 *47:32 *919:A2 4.5 
13 *47:22 *915:A2 4.5 
14 *47:14 *916:A2 4.5 
15 *47:8 *917:A1 15.476 
*END

*D_NET *48 0.00687274
*CONN
*I *974:B I *D gf180mcu_fd_sc_mcu7t5v0__oai21_1
*I *1004:I I *D gf180mcu_fd_sc_mcu7t5v0__buf_2
*I *904:ZN O *D gf180mcu_fd_sc_mcu7t5v0__clkinv_1
*CAP
1 *974:B 0.00124064
2 *1004:I 0.00015819
3 *904:ZN 0.000132925
4 *48:6 0.00153176
5 *974:B *911:A2 0.000339275
6 *974:B *943:B1 0.000229992
7 *974:B *943:B2 2.39471e-05
8 *974:B *945:A2 0.000178622
9 *974:B *945:B 0.000391449
10 *974:B *955:A2 1.07369e-05
11 *974:B *956:A1 0.000374634
12 *974:B *974:A1 0.000113773
13 *974:B *1002:I 2.45296e-05
14 *974:B *54:10 0.000411027
15 *974:B *86:8 0.000993349
16 *974:B *99:27 1.12969e-05
17 *974:B *100:10 3.4596e-05
18 *974:B *114:12 6.99894e-05
19 *974:B *121:8 7.87395e-06
20 *974:B *121:12 7.32829e-06
21 *974:B *122:16 1.91996e-05
22 *974:B *122:77 1.12327e-05
23 *1004:I *956:A1 0
24 *1004:I *53:12 3.59227e-05
25 *1004:I *122:10 0.000355286
26 *48:6 *955:A2 0.000159505
27 *3:10 *974:B 5.65501e-06
*RES
1 *904:ZN *48:6 5.644 
2 *48:6 *1004:I 15.06 
3 *48:6 *974:B 27.54 
*END

*D_NET *49 0.00561634
*CONN
*I *927:A1 I *D gf180mcu_fd_sc_mcu7t5v0__oai21_1
*I *932:A2 I *D gf180mcu_fd_sc_mcu7t5v0__nor3_1
*I *951:A1 I *D gf180mcu_fd_sc_mcu7t5v0__oai21_1
*I *933:A2 I *D gf180mcu_fd_sc_mcu7t5v0__xor2_1
*I *905:Z O *D gf180mcu_fd_sc_mcu7t5v0__and3_1
*CAP
1 *927:A1 0
2 *932:A2 0
3 *951:A1 0.000249716
4 *933:A2 0.000557154
5 *905:Z 0.000426772
6 *49:32 0.00050715
7 *49:24 0.000387815
8 *933:A2 *906:A1 2.39156e-06
9 *933:A2 *906:A2 0.000346997
10 *933:A2 *906:A3 0.00049239
11 *933:A2 *906:A4 3.60231e-05
12 *933:A2 *927:B 0
13 *951:A1 *951:A2 0.000320165
14 *951:A1 *951:B 0.000192903
15 *49:24 *927:B 0
16 *49:24 *77:10 0.000701132
17 *49:32 *927:A2 0.000159517
18 *49:32 *927:B 0.000847906
19 *49:32 *934:A1 0
20 *49:32 *70:8 3.22108e-05
21 *49:32 *70:14 0.000334711
22 *49:32 *77:10 0
23 *49:32 *104:35 2.13874e-05
*RES
1 *905:Z *933:A2 13.576 
2 *933:A2 *49:24 15.476 
3 *49:24 *49:32 12.536 
4 *49:32 *951:A1 7.204 
5 *49:32 *932:A2 4.5 
6 *49:24 *927:A1 4.5 
*END

*D_NET *50 0.00782691
*CONN
*I *907:A2 I *D gf180mcu_fd_sc_mcu7t5v0__nand2_1
*I *909:A4 I *D gf180mcu_fd_sc_mcu7t5v0__nand4_1
*I *908:A3 I *D gf180mcu_fd_sc_mcu7t5v0__nand3_1
*I *935:A2 I *D gf180mcu_fd_sc_mcu7t5v0__xor2_1
*I *906:Z O *D gf180mcu_fd_sc_mcu7t5v0__and4_1
*CAP
1 *907:A2 0
2 *909:A4 0.000378977
3 *908:A3 0
4 *935:A2 0
5 *906:Z 0.00154473
6 *50:27 0.00109714
7 *50:19 0.00130719
8 *50:8 0.00213375
9 *909:A4 *909:A1 3.19367e-05
10 *909:A4 *909:A2 4.02644e-05
11 *909:A4 *909:A3 0
12 *50:8 *906:A3 0
13 *50:8 *935:A1 6.18411e-06
14 *50:8 *79:14 0.000122244
15 *50:8 *110:12 0
16 *50:19 *907:A1 4.07478e-05
17 *50:19 *935:A1 5.06503e-05
18 *50:19 *79:14 0.000170896
19 *50:19 *111:17 0
20 *50:27 *907:A1 3.42651e-05
21 *50:27 *909:A1 5.38568e-05
22 *50:27 *938:A1 0.000145598
23 *50:27 *938:A2 0.000159505
24 *50:27 *111:32 8.21146e-06
25 *50:27 *112:8 0.000500761
*RES
1 *906:Z *50:8 15.316 
2 *50:8 *935:A2 4.5 
3 *50:8 *50:19 4.68 
4 *50:19 *50:27 10.636 
5 *50:27 *908:A3 9 
6 *50:27 *909:A4 11.912 
7 *50:19 *907:A2 4.5 
*END

*D_NET *51 0.000446608
*CONN
*I *938:A2 I *D gf180mcu_fd_sc_mcu7t5v0__xor2_1
*I *907:ZN O *D gf180mcu_fd_sc_mcu7t5v0__nand2_1
*CAP
1 *938:A2 9.12343e-05
2 *907:ZN 9.12343e-05
3 *938:A2 *938:A1 4.07478e-05
4 *938:A2 *111:32 6.38863e-05
5 *50:27 *938:A2 0.000159505
*RES
1 *907:ZN *938:A2 10.144 
*END

*D_NET *52 0.000954495
*CONN
*I *940:A2 I *D gf180mcu_fd_sc_mcu7t5v0__xor2_1
*I *908:ZN O *D gf180mcu_fd_sc_mcu7t5v0__nand3_1
*CAP
1 *940:A2 0.000164242
2 *908:ZN 0.000164242
3 *940:A2 *909:A1 0.000207592
4 *940:A2 *909:A2 6.9077e-05
5 *940:A2 *84:10 0
6 *940:A2 *111:32 4.18042e-05
7 *940:A2 *112:8 0.000272942
8 *940:A2 *113:10 3.4596e-05
*RES
1 *908:ZN *940:A2 10.768 
*END

*D_NET *53 0.00417265
*CONN
*I *942:A2 I *D gf180mcu_fd_sc_mcu7t5v0__xor2_1
*I *910:I I *D gf180mcu_fd_sc_mcu7t5v0__clkinv_1
*I *909:ZN O *D gf180mcu_fd_sc_mcu7t5v0__nand4_1
*CAP
1 *942:A2 0.000321326
2 *910:I 0
3 *909:ZN 0.000956919
4 *53:12 0.00127825
5 *942:A2 *943:B1 4.97146e-05
6 *942:A2 *943:B2 1.78817e-06
7 *942:A2 *54:10 3.28258e-05
8 *942:A2 *114:6 4.18157e-05
9 *53:12 *904:I 5.65788e-06
10 *53:12 *909:A3 0.000435869
11 *53:12 *943:B1 0.000169099
12 *53:12 *84:10 0.00041571
13 *53:12 *84:14 0.000427758
14 *53:12 *122:10 0
15 *1004:I *53:12 3.59227e-05
*RES
1 *909:ZN *53:12 24.732 
2 *53:12 *910:I 4.5 
3 *53:12 *942:A2 6.996 
*END

*D_NET *54 0.0021821
*CONN
*I *912:A2 I *D gf180mcu_fd_sc_mcu7t5v0__nand2_1
*I *911:A2 I *D gf180mcu_fd_sc_mcu7t5v0__and2_1
*I *910:ZN O *D gf180mcu_fd_sc_mcu7t5v0__clkinv_1
*CAP
1 *912:A2 7.84661e-05
2 *911:A2 0.000147445
3 *910:ZN 0.000192068
4 *54:10 0.000417979
5 *911:A2 *912:A1 7.89589e-05
6 *911:A2 *1002:I 0.000101075
7 *912:A2 *912:A1 6.06017e-05
8 *912:A2 *943:B2 0.000143837
9 *912:A2 *1002:I 0
10 *54:10 *943:B1 0.000178541
11 *942:A2 *54:10 3.28258e-05
12 *974:B *911:A2 0.000339275
13 *974:B *54:10 0.000411027
*RES
1 *910:ZN *54:10 10.664 
2 *54:10 *911:A2 10.664 
3 *54:10 *912:A2 9.728 
*END

*D_NET *55 0.00867237
*CONN
*I *1003:I I *D gf180mcu_fd_sc_mcu7t5v0__buf_2
*I *1002:I I *D gf180mcu_fd_sc_mcu7t5v0__buf_2
*I *911:Z O *D gf180mcu_fd_sc_mcu7t5v0__and2_1
*CAP
1 *1003:I 0.000928681
2 *1002:I 0.00206509
3 *911:Z 0
4 *55:4 0.00299377
5 *1002:I *902:I 2.38773e-05
6 *1002:I *904:I 0
7 *1002:I *912:A1 1.51046e-05
8 *1002:I *943:A1 3.47057e-05
9 *1002:I *943:B1 3.14958e-05
10 *1002:I *943:B2 0.000337769
11 *1002:I *965:B 0.000103788
12 *1002:I *967:A2 0.000266842
13 *1002:I *985:CLK 0.000172014
14 *1002:I *1000:I 0.000103844
15 *1002:I *56:10 0.000239105
16 *1002:I *96:8 3.10704e-05
17 *1002:I *97:19 0
18 *1002:I *102:32 0
19 *1002:I *102:66 8.72055e-05
20 *1002:I *102:71 0.000864816
21 *1002:I *120:8 3.91896e-05
22 *1003:I *956:A1 0
23 *1003:I *985:CLK 0.000208409
24 *911:A2 *1002:I 0.000101075
25 *912:A2 *1002:I 0
26 *974:B *1002:I 2.45296e-05
*RES
1 *911:Z *55:4 4.5 
2 *55:4 *1002:I 31.7 
3 *55:4 *1003:I 21.196 
*END

*D_NET *56 0.0126347
*CONN
*I *947:C I *D gf180mcu_fd_sc_mcu7t5v0__oai211_1
*I *925:A2 I *D gf180mcu_fd_sc_mcu7t5v0__nand2_1
*I *972:A2 I *D gf180mcu_fd_sc_mcu7t5v0__aoi22_1
*I *970:A2 I *D gf180mcu_fd_sc_mcu7t5v0__aoi22_1
*I *969:A2 I *D gf180mcu_fd_sc_mcu7t5v0__nor2_1
*I *912:ZN O *D gf180mcu_fd_sc_mcu7t5v0__nand2_1
*CAP
1 *947:C 0
2 *925:A2 0.000359322
3 *972:A2 0.000364377
4 *970:A2 0
5 *969:A2 0.000152693
6 *912:ZN 0.00043111
7 *56:33 0.000364377
8 *56:18 0.000980759
9 *56:12 0.00143388
10 *56:10 0.000677603
11 *925:A2 *925:A1 0.000509988
12 *925:A2 *947:A1 0
13 *969:A2 *903:I 0
14 *969:A2 *970:A1 0.000141148
15 *972:A2 *117:25 0
16 *56:10 *904:I 8.69612e-05
17 *56:10 *943:B2 1.32276e-05
18 *56:10 *985:CLK 0
19 *56:10 *98:21 0.000906999
20 *56:10 *102:11 0
21 *56:10 *106:12 0.000617599
22 *56:12 *904:I 2.80993e-05
23 *56:12 *947:A2 0.000209505
24 *56:12 *98:21 0.0012029
25 *56:18 *970:A1 0.000306979
26 *56:18 *992:CLK 0.00116851
27 *56:18 *98:21 0.000699849
28 *56:18 *105:30 0.00052527
29 *971:A2 *969:A2 0.000354807
30 *1002:I *56:10 0.000239105
31 *3:10 *925:A2 0.000250466
32 *41:6 *969:A2 0.000428493
33 *41:6 *972:A2 2.36218e-05
34 *41:8 *972:A2 0.000157034
*RES
1 *912:ZN *56:10 14.408 
2 *56:10 *56:12 3.224 
3 *56:12 *56:18 10.296 
4 *56:18 *969:A2 11.184 
5 *56:18 *56:33 4.5 
6 *56:33 *970:A2 4.5 
7 *56:33 *972:A2 7.308 
8 *56:12 *925:A2 12.536 
9 *56:10 *947:C 9 
*END

*D_NET *57 0.00145388
*CONN
*I *976:A1 I *D gf180mcu_fd_sc_mcu7t5v0__aoi21_1
*I *913:ZN O *D gf180mcu_fd_sc_mcu7t5v0__nand2_1
*CAP
1 *976:A1 5.78769e-05
2 *913:ZN 5.78769e-05
3 *976:A1 *117:74 0.000605842
4 *976:A1 *117:93 0.000125283
5 *976:A1 *121:22 7.29199e-05
6 *976:A1 *121:50 0.000534077
*RES
1 *913:ZN *976:A1 19.976 
*END

*D_NET *58 0.000931332
*CONN
*I *917:A2 I *D gf180mcu_fd_sc_mcu7t5v0__and4_1
*I *914:ZN O *D gf180mcu_fd_sc_mcu7t5v0__nor2_1
*CAP
1 *917:A2 0.000321564
2 *914:ZN 0.000321564
3 *917:A2 *914:A1 6.91057e-05
4 *917:A2 *915:A1 0.000219099
5 *47:8 *917:A2 0
*RES
1 *914:ZN *917:A2 11.912 
*END

*D_NET *59 0.00820625
*CONN
*I *968:A2 I *D gf180mcu_fd_sc_mcu7t5v0__aoi211_1
*I *917:A3 I *D gf180mcu_fd_sc_mcu7t5v0__and4_1
*I *915:ZN O *D gf180mcu_fd_sc_mcu7t5v0__nand2_1
*CAP
1 *968:A2 0.00111754
2 *917:A3 0.000224657
3 *915:ZN 0
4 *59:6 0.00134219
5 *917:A3 *915:A1 5.78698e-05
6 *917:A3 *916:A1 0.000115856
7 *917:A3 *917:A4 5.02817e-05
8 *968:A2 *902:I 0
9 *968:A2 *916:A1 0.00057698
10 *968:A2 *948:A2 0.000591034
11 *968:A2 *963:A1 0
12 *968:A2 *964:A2 0.00263608
13 *968:A2 *991:CLK 7.16355e-05
14 *968:A2 *1016:I 4.04633e-05
15 *968:A2 *117:99 0.000337769
16 *917:A1 *968:A2 0
17 *964:B *968:A2 0.000951689
18 *47:22 *917:A3 2.80885e-05
19 *47:22 *968:A2 6.41072e-05
*RES
1 *915:ZN *59:6 9 
2 *59:6 *917:A3 11.08 
3 *59:6 *968:A2 23.976 
*END

*D_NET *60 0.00564132
*CONN
*I *964:A2 I *D gf180mcu_fd_sc_mcu7t5v0__aoi21_1
*I *917:A4 I *D gf180mcu_fd_sc_mcu7t5v0__and4_1
*I *916:ZN O *D gf180mcu_fd_sc_mcu7t5v0__nand2_1
*CAP
1 *964:A2 0.000382388
2 *917:A4 0.000189125
3 *916:ZN 0
4 *60:4 0.000571513
5 *917:A4 *915:A1 3.42651e-05
6 *917:A4 *923:A1 0.000190584
7 *964:A2 *948:A2 0.0011748
8 *917:A3 *917:A4 5.02817e-05
9 *968:A2 *964:A2 0.00263608
10 *977:D *964:A2 5.58447e-05
11 *47:14 *917:A4 3.50983e-05
12 *47:22 *964:A2 0.000280581
13 *47:32 *917:A4 4.07478e-05
*RES
1 *916:ZN *60:4 4.5 
2 *60:4 *917:A4 6.58 
3 *60:4 *964:A2 20.468 
*END

*D_NET *61 0.00246524
*CONN
*I *923:A1 I *D gf180mcu_fd_sc_mcu7t5v0__nand4_1
*I *917:Z O *D gf180mcu_fd_sc_mcu7t5v0__and4_1
*CAP
1 *923:A1 0.000746319
2 *917:Z 0.000746319
3 *923:A1 *916:A1 9.76253e-05
4 *923:A1 *924:A3 0.000116566
5 *923:A1 *966:A2 0
6 *923:A1 *1016:I 3.48247e-05
7 *923:A1 *63:10 1.60028e-05
8 *923:A1 *115:8 1.12327e-05
9 *923:A1 *117:43 0
10 *917:A4 *923:A1 0.000190584
11 *47:14 *923:A1 0.00032445
12 *47:32 *923:A1 0.000181319
*RES
1 *917:Z *923:A1 24.76 
*END

*D_NET *62 0.00399641
*CONN
*I *960:A2 I *D gf180mcu_fd_sc_mcu7t5v0__aoi211_1
*I *923:A2 I *D gf180mcu_fd_sc_mcu7t5v0__nand4_1
*I *918:ZN O *D gf180mcu_fd_sc_mcu7t5v0__nand2_1
*CAP
1 *960:A2 0.000641639
2 *923:A2 0.00049027
3 *918:ZN 0.000174177
4 *62:8 0.00130609
5 *923:A2 *923:A4 2.93608e-05
6 *923:A2 *958:A2 0.000194522
7 *923:A2 *115:8 0
8 *923:A2 *117:43 0
9 *960:A2 *958:A1 0
10 *960:A2 *960:A1 1.40331e-05
11 *960:A2 *962:A2 0
12 *960:A2 *103:10 0
13 *960:A2 *103:30 0
14 *960:A2 *117:43 0.000866985
15 *960:A2 *120:47 0
16 *62:8 *920:A1 0
17 *62:8 *921:A1 1.76416e-05
18 *62:8 *958:A1 0
19 *918:A2 *923:A2 1.32276e-05
20 *918:A2 *62:8 0.00016407
21 *47:51 *923:A2 8.44004e-05
*RES
1 *918:ZN *62:8 10.768 
2 *62:8 *923:A2 12.848 
3 *62:8 *960:A2 13.784 
*END

*D_NET *63 0.00609151
*CONN
*I *966:A2 I *D gf180mcu_fd_sc_mcu7t5v0__aoi21_1
*I *923:A3 I *D gf180mcu_fd_sc_mcu7t5v0__nand4_1
*I *919:ZN O *D gf180mcu_fd_sc_mcu7t5v0__nand2_1
*CAP
1 *966:A2 0.00166732
2 *923:A3 0
3 *919:ZN 0.000180227
4 *63:10 0.00184754
5 *966:A2 *920:A1 0
6 *966:A2 *962:A2 0
7 *966:A2 *964:A1 0.00052527
8 *966:A2 *966:A1 0.000180942
9 *966:A2 *991:CLK 0.000582256
10 *966:A2 *104:12 0.000500772
11 *966:A2 *120:18 6.59135e-05
12 *966:A2 *120:24 0.00052527
13 *923:A1 *966:A2 0
14 *923:A1 *63:10 1.60028e-05
15 *47:47 *966:A2 0
16 *47:47 *63:10 0
*RES
1 *919:ZN *63:10 10.456 
2 *63:10 *923:A3 9 
3 *63:10 *966:A2 23.976 
*END

*D_NET *64 0.00389816
*CONN
*I *962:A2 I *D gf180mcu_fd_sc_mcu7t5v0__aoi21_1
*I *920:ZN O *D gf180mcu_fd_sc_mcu7t5v0__nand2_1
*CAP
1 *962:A2 0.0010462
2 *920:ZN 0.0010462
3 *962:A2 *959:A2 1.60338e-05
4 *962:A2 *989:CLK 0.000419265
5 *962:A2 *103:10 0.000648383
6 *962:A2 *103:30 0.000509988
7 *962:A2 *120:80 2.81522e-06
8 *960:A2 *962:A2 0
9 *966:A2 *962:A2 0
10 *988:D *962:A2 0.000209278
*RES
1 *920:ZN *962:A2 26.736 
*END

*D_NET *65 0.00105069
*CONN
*I *958:A2 I *D gf180mcu_fd_sc_mcu7t5v0__aoi211_1
*I *921:ZN O *D gf180mcu_fd_sc_mcu7t5v0__nand2_1
*CAP
1 *958:A2 0.000399712
2 *921:ZN 0.000399712
3 *958:A2 *957:A2 2.39156e-06
4 *958:A2 *958:A1 4.18042e-05
5 *958:A2 *92:12 7.87395e-06
6 *918:A2 *958:A2 4.67771e-06
7 *923:A2 *958:A2 0.000194522
*RES
1 *921:ZN *958:A2 11.808 
*END

*D_NET *66 0.000861298
*CONN
*I *923:A4 I *D gf180mcu_fd_sc_mcu7t5v0__nand4_1
*I *922:ZN O *D gf180mcu_fd_sc_mcu7t5v0__oai21_1
*CAP
1 *923:A4 0.000160974
2 *922:ZN 0.000160974
3 *923:A4 *115:8 0.000509988
4 *923:A2 *923:A4 2.93608e-05
*RES
1 *922:ZN *923:A4 10.872 
*END

*D_NET *67 0.00308
*CONN
*I *924:A3 I *D gf180mcu_fd_sc_mcu7t5v0__nand3_1
*I *923:ZN O *D gf180mcu_fd_sc_mcu7t5v0__nand4_1
*CAP
1 *924:A3 0.000844349
2 *923:ZN 0.000844349
3 *924:A3 *1016:I 2.6679e-05
4 *924:A3 *117:35 0.00112993
5 *924:A3 *117:43 0.00011813
6 *923:A1 *924:A3 0.000116566
7 *47:8 *924:A3 0
8 *47:14 *924:A3 0
*RES
1 *923:ZN *924:A3 16.488 
*END

*D_NET *68 0.000789632
*CONN
*I *948:A1 I *D gf180mcu_fd_sc_mcu7t5v0__aoi21_1
*I *924:ZN O *D gf180mcu_fd_sc_mcu7t5v0__nand3_1
*CAP
1 *948:A1 0.000315024
2 *924:ZN 0.000315024
3 *948:A1 *117:35 0.000121519
4 *948:A1 *117:43 1.41781e-05
5 *977:D *948:A1 2.38865e-05
*RES
1 *924:ZN *948:A1 11.6 
*END

*D_NET *69 0.000552346
*CONN
*I *976:A2 I *D gf180mcu_fd_sc_mcu7t5v0__aoi21_1
*I *925:ZN O *D gf180mcu_fd_sc_mcu7t5v0__nand2_1
*CAP
1 *976:A2 1.79633e-05
2 *925:ZN 1.79633e-05
3 *976:A2 *117:93 0.000364104
4 *976:A2 *121:22 0.000152316
*RES
1 *925:ZN *976:A2 18.936 
*END

*D_NET *70 0.00343205
*CONN
*I *927:A2 I *D gf180mcu_fd_sc_mcu7t5v0__oai21_1
*I *932:A3 I *D gf180mcu_fd_sc_mcu7t5v0__nor3_1
*I *951:A2 I *D gf180mcu_fd_sc_mcu7t5v0__oai21_1
*I *926:ZN O *D gf180mcu_fd_sc_mcu7t5v0__aoi21_1
*CAP
1 *927:A2 6.99832e-05
2 *932:A3 0
3 *951:A2 0.0001984
4 *926:ZN 0.000333074
5 *70:14 0.000297918
6 *70:8 0.000502575
7 *927:A2 *104:35 0.00014878
8 *951:A2 *934:A2 0.000466936
9 *951:A2 *951:B 1.23682e-05
10 *951:A2 *104:35 0.000183033
11 *70:8 *906:A1 0
12 *70:8 *927:B 5.63044e-06
13 *70:8 *104:35 0.000354419
14 *70:14 *934:A1 1.23331e-05
15 *951:A1 *951:A2 0.000320165
16 *49:32 *927:A2 0.000159517
17 *49:32 *70:8 3.22108e-05
18 *49:32 *70:14 0.000334711
*RES
1 *926:ZN *70:8 7.412 
2 *70:8 *70:14 9.936 
3 *70:14 *951:A2 7.412 
4 *70:14 *932:A3 4.5 
5 *70:8 *927:A2 5.644 
*END

*D_NET *71 0.000351169
*CONN
*I *934:A1 I *D gf180mcu_fd_sc_mcu7t5v0__aoi221_1
*I *927:ZN O *D gf180mcu_fd_sc_mcu7t5v0__oai21_1
*CAP
1 *934:A1 9.32601e-05
2 *927:ZN 9.32601e-05
3 *934:A1 *77:10 0.000152316
4 *49:32 *934:A1 0
5 *70:14 *934:A1 1.23331e-05
*RES
1 *927:ZN *934:A1 18.936 
*END

*D_NET *72 0.00069257
*CONN
*I *931:A1 I *D gf180mcu_fd_sc_mcu7t5v0__aoi22_1
*I *928:Z O *D gf180mcu_fd_sc_mcu7t5v0__or2_1
*CAP
1 *931:A1 7.95425e-05
2 *928:Z 7.95425e-05
3 *931:A1 *928:A2 2.76367e-05
4 *931:A1 *929:A2 1.48584e-05
5 *931:A1 *931:B2 0.000292328
6 *931:A1 *934:A2 3.71243e-05
7 *931:A1 *949:A2 0.000161537
*RES
1 *928:Z *931:A1 19.56 
*END

*D_NET *73 0.00056161
*CONN
*I *931:A2 I *D gf180mcu_fd_sc_mcu7t5v0__aoi22_1
*I *929:Z O *D gf180mcu_fd_sc_mcu7t5v0__and2_1
*CAP
1 *931:A2 0.000227152
2 *929:Z 0.000227152
3 *931:A2 *928:A2 4.67771e-06
4 *931:A2 *929:A2 0.000102627
*RES
1 *929:Z *931:A2 10.456 
*END

*D_NET *74 0.00260075
*CONN
*I *931:B1 I *D gf180mcu_fd_sc_mcu7t5v0__aoi22_1
*I *950:A2 I *D gf180mcu_fd_sc_mcu7t5v0__nand2_1
*I *930:ZN O *D gf180mcu_fd_sc_mcu7t5v0__xnor2_1
*CAP
1 *931:B1 0.000105199
2 *950:A2 0.000165286
3 *930:ZN 5.67697e-05
4 *74:6 0.000327254
5 *931:B1 *928:A2 0.000281653
6 *931:B1 *929:A2 3.07277e-05
7 *950:A2 *949:A2 0.0011905
8 *950:A2 *108:17 0.000107648
9 *74:6 *928:A2 0.000103788
10 *74:6 *929:A2 5.63044e-06
11 *74:6 *107:16 3.17817e-05
12 *74:6 *108:8 0.000194511
*RES
1 *930:ZN *74:6 5.228 
2 *74:6 *950:A2 16.516 
3 *74:6 *931:B1 5.436 
*END

*D_NET *75 0.00412762
*CONN
*I *934:A2 I *D gf180mcu_fd_sc_mcu7t5v0__aoi221_1
*I *931:ZN O *D gf180mcu_fd_sc_mcu7t5v0__aoi22_1
*CAP
1 *934:A2 0.000821075
2 *931:ZN 0.000821075
3 *934:A2 *927:B 6.26694e-05
4 *934:A2 *929:A2 0.000271764
5 *934:A2 *934:C 0.000327632
6 *934:A2 *949:A2 4.41605e-05
7 *934:A2 *951:B 8.21146e-06
8 *934:A2 *94:21 0.000429445
9 *934:A2 *104:35 0.00083753
10 *934:A2 *108:17 0
11 *931:A1 *934:A2 3.71243e-05
12 *951:A2 *934:A2 0.000466936
*RES
1 *931:ZN *934:A2 28.4 
*END

*D_NET *76 0.000698352
*CONN
*I *934:C I *D gf180mcu_fd_sc_mcu7t5v0__aoi221_1
*I *932:ZN O *D gf180mcu_fd_sc_mcu7t5v0__nor3_1
*CAP
1 *934:C 0.000130443
2 *932:ZN 0.000130443
3 *934:C *934:B1 1.71326e-05
4 *934:C *951:B 9.27006e-05
5 *934:A2 *934:C 0.000327632
*RES
1 *932:ZN *934:C 10.768 
*END

*D_NET *77 0.00711225
*CONN
*I *937:A2 I *D gf180mcu_fd_sc_mcu7t5v0__oai22_1
*I *952:A2 I *D gf180mcu_fd_sc_mcu7t5v0__or2_1
*I *934:B1 I *D gf180mcu_fd_sc_mcu7t5v0__aoi221_1
*I *933:Z O *D gf180mcu_fd_sc_mcu7t5v0__xor2_1
*CAP
1 *937:A2 0.000110517
2 *952:A2 0.000216108
3 *934:B1 1.83157e-05
4 *933:Z 0.000368688
5 *77:21 0.000547427
6 *77:10 0.000607807
7 *934:B1 *939:B2 2.81522e-06
8 *934:B1 *951:B 0.000122244
9 *934:B1 *104:35 1.70957e-06
10 *937:A2 *939:B2 0.00150846
11 *937:A2 *951:B 0.000978486
12 *77:10 *927:B 0
13 *77:10 *94:21 0
14 *77:21 *939:B2 0.000198933
15 *77:21 *951:B 0.00138671
16 *934:A1 *77:10 0.000152316
17 *934:B2 *937:A2 0.000173451
18 *934:C *934:B1 1.71326e-05
19 *49:24 *77:10 0.000701132
20 *49:32 *77:10 0
*RES
1 *933:Z *77:10 17.348 
2 *77:10 *934:B1 4.812 
3 *77:10 *77:21 3.952 
4 *77:21 *952:A2 14.852 
5 *77:21 *937:A2 8.556 
*END

*D_NET *78 0.00488823
*CONN
*I *939:B2 I *D gf180mcu_fd_sc_mcu7t5v0__oai222_1
*I *934:ZN O *D gf180mcu_fd_sc_mcu7t5v0__aoi221_1
*CAP
1 *939:B2 0.000559244
2 *934:ZN 0.000559244
3 *939:B2 *937:B1 8.44565e-06
4 *939:B2 *939:B1 0.000146737
5 *939:B2 *952:A1 0.00165914
6 *939:B2 *953:A2 8.5692e-05
7 *939:B2 *104:35 0.000159517
8 *934:B1 *939:B2 2.81522e-06
9 *937:A2 *939:B2 0.00150846
10 *77:21 *939:B2 0.000198933
*RES
1 *934:ZN *939:B2 17.632 
*END

*D_NET *79 0.00453968
*CONN
*I *936:I I *D gf180mcu_fd_sc_mcu7t5v0__clkinv_1
*I *937:B1 I *D gf180mcu_fd_sc_mcu7t5v0__oai22_1
*I *935:Z O *D gf180mcu_fd_sc_mcu7t5v0__xor2_1
*CAP
1 *936:I 0.00015249
2 *937:B1 0.000246279
3 *935:Z 0.0006554
4 *79:14 0.00105417
5 *936:I *953:A2 8.10143e-05
6 *936:I *1017:I 0
7 *936:I *80:8 0.000103933
8 *936:I *122:25 0.000782893
9 *936:I *122:31 0.000105623
10 *937:B1 *939:A1 0.000132792
11 *937:B1 *939:B1 1.07369e-05
12 *937:B1 *939:C2 4.67771e-06
13 *937:B1 *952:A1 0.00042999
14 *937:B1 *953:A2 0.000283521
15 *937:B1 *122:31 0
16 *79:14 *953:A2 0.000155298
17 *934:B2 *937:B1 3.4596e-05
18 *937:B2 *937:B1 4.67771e-06
19 *939:B2 *937:B1 8.44565e-06
20 *50:8 *79:14 0.000122244
21 *50:19 *79:14 0.000170896
*RES
1 *935:Z *79:14 14.616 
2 *79:14 *937:B1 11.704 
3 *79:14 *936:I 11.392 
*END

*D_NET *80 0.00161565
*CONN
*I *939:A2 I *D gf180mcu_fd_sc_mcu7t5v0__oai222_1
*I *953:A2 I *D gf180mcu_fd_sc_mcu7t5v0__nand2_1
*I *936:ZN O *D gf180mcu_fd_sc_mcu7t5v0__clkinv_1
*CAP
1 *939:A2 0
2 *953:A2 0.000257396
3 *936:ZN 0.000181045
4 *80:8 0.000438441
5 *953:A2 *952:A1 1.07369e-05
6 *953:A2 *122:31 5.63044e-06
7 *80:8 *1017:I 1.29379e-05
8 *936:I *953:A2 8.10143e-05
9 *936:I *80:8 0.000103933
10 *937:B1 *953:A2 0.000283521
11 *939:B2 *953:A2 8.5692e-05
12 *79:14 *953:A2 0.000155298
*RES
1 *936:ZN *80:8 6.164 
2 *80:8 *953:A2 15.996 
3 *80:8 *939:A2 4.5 
*END

*D_NET *81 0.000458245
*CONN
*I *939:B1 I *D gf180mcu_fd_sc_mcu7t5v0__oai222_1
*I *937:ZN O *D gf180mcu_fd_sc_mcu7t5v0__oai22_1
*CAP
1 *939:B1 0.000136766
2 *937:ZN 0.000136766
3 *939:B1 *939:C2 2.7239e-05
4 *937:B1 *939:B1 1.07369e-05
5 *939:B2 *939:B1 0.000146737
*RES
1 *937:ZN *939:B1 10.144 
*END

*D_NET *82 0.00427755
*CONN
*I *954:A2 I *D gf180mcu_fd_sc_mcu7t5v0__nand2_1
*I *939:C1 I *D gf180mcu_fd_sc_mcu7t5v0__oai222_1
*I *941:A2 I *D gf180mcu_fd_sc_mcu7t5v0__aoi22_1
*I *938:Z O *D gf180mcu_fd_sc_mcu7t5v0__xor2_1
*CAP
1 *954:A2 0
2 *939:C1 0.000400028
3 *941:A2 0.000252159
4 *938:Z 0.00059628
5 *82:10 0.000927484
6 *82:8 0.000871576
7 *939:C1 *941:A1 0
8 *939:C1 *1017:I 0.000600498
9 *939:C1 *97:19 0
10 *941:A2 *941:A1 0.000114503
11 *941:A2 *944:A1 0.000286088
12 *941:A2 *944:A2 0.00011246
13 *941:A2 *947:A1 0.000116476
*RES
1 *938:Z *82:8 13.888 
2 *82:8 *82:10 2.184 
3 *82:10 *941:A2 11.912 
4 *82:10 *939:C1 13.056 
5 *82:8 *954:A2 9 
*END

*D_NET *83 0.00190441
*CONN
*I *1017:I I *D gf180mcu_fd_sc_mcu7t5v0__clkbuf_1
*I *939:ZN O *D gf180mcu_fd_sc_mcu7t5v0__oai222_1
*CAP
1 *1017:I 0.000620895
2 *939:ZN 0.000620895
3 *1017:I *944:A1 4.91818e-05
4 *1017:I *944:A2 0
5 *1017:I *122:16 0
6 *1017:I *122:25 0
7 *936:I *1017:I 0
8 *939:C1 *1017:I 0.000600498
9 *80:8 *1017:I 1.29379e-05
*RES
1 *939:ZN *1017:I 14.72 
*END

*D_NET *84 0.00525581
*CONN
*I *955:A2 I *D gf180mcu_fd_sc_mcu7t5v0__nand2_1
*I *943:A2 I *D gf180mcu_fd_sc_mcu7t5v0__oai22_1
*I *941:B1 I *D gf180mcu_fd_sc_mcu7t5v0__aoi22_1
*I *940:Z O *D gf180mcu_fd_sc_mcu7t5v0__xor2_1
*CAP
1 *955:A2 0.00011416
2 *943:A2 0
3 *941:B1 0.000275923
4 *940:Z 0.000387663
5 *84:14 0.000450559
6 *84:10 0.000676459
7 *941:B1 *941:A1 4.07478e-05
8 *941:B1 *944:A2 3.93698e-05
9 *941:B1 *944:B 0.000863766
10 *955:A2 *904:I 0.000113027
11 *955:A2 *122:16 0.000723738
12 *84:14 *904:I 0.000556686
13 *940:A2 *84:10 0
14 *974:B *955:A2 1.07369e-05
15 *48:6 *955:A2 0.000159505
16 *53:12 *84:10 0.00041571
17 *53:12 *84:14 0.000427758
*RES
1 *940:Z *84:10 13.16 
2 *84:10 *84:14 8.348 
3 *84:14 *941:B1 7.62 
4 *84:14 *943:A2 4.5 
5 *84:10 *955:A2 10.976 
*END

*D_NET *85 0.000653364
*CONN
*I *944:A2 I *D gf180mcu_fd_sc_mcu7t5v0__aoi21_1
*I *941:ZN O *D gf180mcu_fd_sc_mcu7t5v0__aoi22_1
*CAP
1 *944:A2 0.000233056
2 *941:ZN 0.000233056
3 *944:A2 *944:A1 3.26853e-05
4 *944:A2 *944:B 2.73715e-06
5 *941:A2 *944:A2 0.00011246
6 *941:B1 *944:A2 3.93698e-05
7 *1017:I *944:A2 0
*RES
1 *941:ZN *944:A2 11.08 
*END

*D_NET *86 0.0043454
*CONN
*I *943:B1 I *D gf180mcu_fd_sc_mcu7t5v0__oai22_1
*I *956:A2 I *D gf180mcu_fd_sc_mcu7t5v0__nand2_1
*I *945:A2 I *D gf180mcu_fd_sc_mcu7t5v0__aoi21_1
*I *942:Z O *D gf180mcu_fd_sc_mcu7t5v0__xor2_1
*CAP
1 *943:B1 0.000214165
2 *956:A2 0
3 *945:A2 2.31604e-05
4 *942:Z 0
5 *86:8 0.00015406
6 *86:6 0.000345065
7 *943:B1 *943:B2 0.000452466
8 *943:B1 *114:12 0.000271753
9 *945:A2 *943:B2 0.00020053
10 *86:8 *943:B2 0.000569863
11 *86:8 *114:12 0.000283521
12 *942:A2 *943:B1 4.97146e-05
13 *974:B *943:B1 0.000229992
14 *974:B *945:A2 0.000178622
15 *974:B *86:8 0.000993349
16 *1002:I *943:B1 3.14958e-05
17 *53:12 *943:B1 0.000169099
18 *54:10 *943:B1 0.000178541
*RES
1 *942:Z *86:6 9 
2 *86:6 *86:8 4.264 
3 *86:8 *945:A2 10.144 
4 *86:8 *956:A2 9 
5 *86:6 *943:B1 12.536 
*END

*D_NET *87 0.00248258
*CONN
*I *944:B I *D gf180mcu_fd_sc_mcu7t5v0__aoi21_1
*I *943:ZN O *D gf180mcu_fd_sc_mcu7t5v0__oai22_1
*CAP
1 *944:B 0.000249044
2 *943:ZN 0.000249044
3 *944:B *941:A1 0.000172847
4 *944:B *941:B2 0.0003482
5 *944:B *943:A1 0.000493461
6 *944:B *102:71 0.000103483
7 *941:B1 *944:B 0.000863766
8 *944:A2 *944:B 2.73715e-06
*RES
1 *943:ZN *944:B 13.68 
*END

*D_NET *88 0.00347913
*CONN
*I *947:A1 I *D gf180mcu_fd_sc_mcu7t5v0__oai211_1
*I *944:ZN O *D gf180mcu_fd_sc_mcu7t5v0__aoi21_1
*CAP
1 *947:A1 0.00121613
2 *944:ZN 0.00121613
3 *947:A1 *904:I 1.32276e-05
4 *947:A1 *925:A1 0
5 *947:A1 *944:A1 0.000188241
6 *947:A1 *946:I 0
7 *947:A1 *947:B 9.35542e-06
8 *947:A1 *948:A2 0.00035158
9 *947:A1 *117:93 0.000355275
10 *947:A1 *121:22 1.27019e-05
11 *925:A2 *947:A1 0
12 *941:A2 *947:A1 0.000116476
*RES
1 *944:ZN *947:A1 27.464 
*END

*D_NET *89 0.00120118
*CONN
*I *946:I I *D gf180mcu_fd_sc_mcu7t5v0__clkinv_1
*I *945:ZN O *D gf180mcu_fd_sc_mcu7t5v0__aoi21_1
*CAP
1 *946:I 0.00056155
2 *945:ZN 0.00056155
3 *946:I *945:B 4.67771e-06
4 *947:A1 *946:I 0
5 *3:10 *946:I 7.34025e-05
*RES
1 *945:ZN *946:I 12.848 
*END

*D_NET *90 0.000476188
*CONN
*I *947:A2 I *D gf180mcu_fd_sc_mcu7t5v0__oai211_1
*I *946:ZN O *D gf180mcu_fd_sc_mcu7t5v0__clkinv_1
*CAP
1 *947:A2 0.000133342
2 *946:ZN 0.000133342
3 *56:12 *947:A2 0.000209505
*RES
1 *946:ZN *947:A2 10.144 
*END

*D_NET *91 0.0080365
*CONN
*I *948:A2 I *D gf180mcu_fd_sc_mcu7t5v0__aoi21_1
*I *947:ZN O *D gf180mcu_fd_sc_mcu7t5v0__oai211_1
*CAP
1 *948:A2 0.00110506
2 *947:ZN 0.00110506
3 *948:A2 *904:I 0.000289908
4 *948:A2 *947:B 0.000410048
5 *948:A2 *991:CLK 0.000139043
6 *948:A2 *117:99 0.00166222
7 *947:A1 *948:A2 0.00035158
8 *964:A2 *948:A2 0.0011748
9 *964:B *948:A2 0.000951689
10 *968:A2 *948:A2 0.000591034
11 *977:D *948:A2 0.000256058
*RES
1 *947:ZN *948:A2 34.64 
*END

*D_NET *92 0.00833649
*CONN
*I *957:A1 I *D gf180mcu_fd_sc_mcu7t5v0__nor2_1
*I *929:A1 I *D gf180mcu_fd_sc_mcu7t5v0__and2_1
*I *986:Q O *D gf180mcu_fd_sc_mcu7t5v0__dffq_1
*CAP
1 *957:A1 0
2 *929:A1 0.000736204
3 *986:Q 0.0007879
4 *92:12 0.0015241
5 *929:A1 *958:A1 0.00019118
6 *929:A1 *958:C 0.000556029
7 *929:A1 *960:C 0.000471934
8 *929:A1 *961:A1 0.000180263
9 *929:A1 *93:19 0
10 *929:A1 *94:21 0.000300344
11 *929:A1 *120:43 0.000820548
12 *929:A1 *120:45 0.000939346
13 *929:A1 *120:47 0.000629205
14 *92:12 *957:A2 1.07369e-05
15 *92:12 *958:C 9.77992e-06
16 *958:A2 *92:12 7.87395e-06
17 *958:B *92:12 0.000123031
18 *960:B *929:A1 0.000227088
19 *962:B *929:A1 0.000781715
20 *986:D *92:12 3.92053e-05
*RES
1 *986:Q *92:12 19.532 
2 *92:12 *929:A1 25.356 
3 *92:12 *957:A1 4.5 
*END

*D_NET *93 0.00281385
*CONN
*I *931:B2 I *D gf180mcu_fd_sc_mcu7t5v0__aoi22_1
*I *928:A1 I *D gf180mcu_fd_sc_mcu7t5v0__or2_1
*I *959:A1 I *D gf180mcu_fd_sc_mcu7t5v0__nor2_1
*I *987:Q O *D gf180mcu_fd_sc_mcu7t5v0__dffq_1
*CAP
1 *931:B2 3.5944e-05
2 *928:A1 0
3 *959:A1 0.000252709
4 *987:Q 0.000152575
5 *93:19 0.00032493
6 *93:8 0.00069427
7 *931:B2 *928:A2 0.000542895
8 *931:B2 *949:A2 7.93873e-05
9 *931:B2 *94:21 1.28023e-05
10 *93:8 *979:CLK 0.000228035
11 *93:8 *122:121 0
12 *93:19 *949:A2 9.70289e-05
13 *93:19 *961:A1 5.03834e-05
14 *93:19 *94:21 3.20057e-05
15 *929:A1 *93:19 0
16 *931:A1 *931:B2 0.000292328
17 *962:B *959:A1 0
18 *979:D *93:8 1.85523e-05
*RES
1 *987:Q *93:8 10.56 
2 *93:8 *959:A1 10.976 
3 *93:8 *93:19 3.016 
4 *93:19 *928:A1 9 
5 *93:19 *931:B2 10.768 
*END

*D_NET *94 0.00597517
*CONN
*I *927:B I *D gf180mcu_fd_sc_mcu7t5v0__oai21_1
*I *932:A1 I *D gf180mcu_fd_sc_mcu7t5v0__nor3_1
*I *961:A1 I *D gf180mcu_fd_sc_mcu7t5v0__oai21_1
*I *988:Q O *D gf180mcu_fd_sc_mcu7t5v0__dffq_1
*CAP
1 *927:B 0.000426706
2 *932:A1 0
3 *961:A1 0.00019234
4 *988:Q 0.000363755
5 *94:21 0.00112563
6 *94:8 0.00125502
7 *961:A1 *979:CLK 4.63309e-05
8 *961:A1 *122:108 6.18411e-06
9 *961:A1 *122:121 0
10 *94:8 *122:108 0.000239699
11 *94:8 *122:121 0.000194522
12 *94:21 *928:A2 9.75059e-05
13 *94:21 *929:A2 0.000106025
14 *929:A1 *961:A1 0.000180263
15 *929:A1 *94:21 0.000300344
16 *931:B2 *94:21 1.28023e-05
17 *933:A2 *927:B 0
18 *934:A2 *927:B 6.26694e-05
19 *934:A2 *94:21 0.000429445
20 *49:24 *927:B 0
21 *49:32 *927:B 0.000847906
22 *70:8 *927:B 5.63044e-06
23 *77:10 *927:B 0
24 *77:10 *94:21 0
25 *93:19 *961:A1 5.03834e-05
26 *93:19 *94:21 3.20057e-05
*RES
1 *988:Q *94:8 12.224 
2 *94:8 *961:A1 11.288 
3 *94:8 *94:21 9.256 
4 *94:21 *932:A1 9 
5 *94:21 *927:B 13.16 
*END

*D_NET *95 0.00319509
*CONN
*I *902:I I *D gf180mcu_fd_sc_mcu7t5v0__clkinv_1
*I *963:A1 I *D gf180mcu_fd_sc_mcu7t5v0__oai21_1
*I *989:Q O *D gf180mcu_fd_sc_mcu7t5v0__dffq_1
*CAP
1 *902:I 0.000414265
2 *963:A1 0.000185463
3 *989:Q 3.36304e-05
4 *95:8 0.000633359
5 *902:I *952:A1 0.000102675
6 *902:I *963:B 0.000408082
7 *902:I *96:23 0
8 *902:I *117:99 7.42486e-05
9 *902:I *120:18 3.20057e-06
10 *902:I *122:33 3.7145e-05
11 *963:A1 *963:B 2.36218e-05
12 *963:A1 *991:CLK 0
13 *963:A1 *120:18 2.2404e-05
14 *95:8 *991:CLK 5.13239e-06
15 *964:B *963:A1 0.000346997
16 *964:B *95:8 1.57479e-05
17 *968:A2 *902:I 0
18 *968:A2 *963:A1 0
19 *968:B *902:I 0.000865238
20 *1002:I *902:I 2.38773e-05
*RES
1 *989:Q *95:8 9.312 
2 *95:8 *963:A1 10.872 
3 *95:8 *902:I 15.24 
*END

*D_NET *96 0.00462279
*CONN
*I *939:A1 I *D gf180mcu_fd_sc_mcu7t5v0__oai222_1
*I *901:I I *D gf180mcu_fd_sc_mcu7t5v0__clkinv_1
*I *965:A1 I *D gf180mcu_fd_sc_mcu7t5v0__oai21_1
*I *990:Q O *D gf180mcu_fd_sc_mcu7t5v0__dffq_1
*CAP
1 *939:A1 0.00053569
2 *901:I 0
3 *965:A1 0.000150364
4 *990:Q 0.000402409
5 *96:23 0.000933836
6 *96:8 0.000950918
7 *939:A1 *939:C2 0.000106306
8 *939:A1 *952:A1 3.34449e-05
9 *939:A1 *97:19 0.000125251
10 *965:A1 *963:B 0.000355275
11 *965:A1 *122:33 0.000405865
12 *96:8 *965:B 1.78817e-06
13 *96:23 *122:33 0.000441747
14 *902:I *96:23 0
15 *934:B2 *96:8 0
16 *934:B2 *96:23 0
17 *937:B1 *939:A1 0.000132792
18 *937:B2 *96:23 1.60338e-05
19 *1002:I *96:8 3.10704e-05
*RES
1 *990:Q *96:8 11.808 
2 *96:8 *965:A1 10.976 
3 *96:8 *96:23 7.412 
4 *96:23 *901:I 4.5 
5 *96:23 *939:A1 18.076 
*END

*D_NET *97 0.00467418
*CONN
*I *939:C2 I *D gf180mcu_fd_sc_mcu7t5v0__oai222_1
*I *967:A1 I *D gf180mcu_fd_sc_mcu7t5v0__nor2_1
*I *941:A1 I *D gf180mcu_fd_sc_mcu7t5v0__aoi22_1
*I *991:Q O *D gf180mcu_fd_sc_mcu7t5v0__dffq_1
*CAP
1 *939:C2 0.000222746
2 *967:A1 0.000142548
3 *941:A1 0.000534483
4 *991:Q 0
5 *97:19 0.000688597
6 *97:4 0.000857786
7 *939:C2 *952:A1 0.000489387
8 *941:A1 *944:A1 0.000113027
9 *941:A1 *102:71 0.000168794
10 *967:A1 *952:A1 0.000865238
11 *97:19 *102:66 0
12 *97:19 *102:71 0
13 *937:B1 *939:C2 4.67771e-06
14 *939:A1 *939:C2 0.000106306
15 *939:A1 *97:19 0.000125251
16 *939:B1 *939:C2 2.7239e-05
17 *939:C1 *941:A1 0
18 *939:C1 *97:19 0
19 *941:A2 *941:A1 0.000114503
20 *941:B1 *941:A1 4.07478e-05
21 *944:B *941:A1 0.000172847
22 *1002:I *97:19 0
*RES
1 *991:Q *97:4 4.5 
2 *97:4 *941:A1 9.596 
3 *97:4 *97:19 6.892 
4 *97:19 *967:A1 11.184 
5 *97:19 *939:C2 11.288 
*END

*D_NET *98 0.00965088
*CONN
*I *943:A1 I *D gf180mcu_fd_sc_mcu7t5v0__oai22_1
*I *941:B2 I *D gf180mcu_fd_sc_mcu7t5v0__aoi22_1
*I *970:A1 I *D gf180mcu_fd_sc_mcu7t5v0__aoi22_1
*I *992:Q O *D gf180mcu_fd_sc_mcu7t5v0__dffq_1
*CAP
1 *943:A1 0.000149629
2 *941:B2 7.09e-05
3 *970:A1 0.000588496
4 *992:Q 0
5 *98:21 0.000942278
6 *98:6 0.00131024
7 *941:B2 *1000:I 8.5056e-05
8 *941:B2 *102:71 0.000121005
9 *943:A1 *1000:I 1.91996e-05
10 *970:A1 *992:CLK 0.00116557
11 *970:A1 *995:CLK 2.57864e-05
12 *970:A1 *105:30 0.000492316
13 *98:21 *925:A1 0.00013448
14 *98:21 *947:B 2.05781e-05
15 *98:21 *995:CLK 1.28023e-05
16 *98:21 *106:12 0.000222889
17 *944:B *941:B2 0.0003482
18 *944:B *943:A1 0.000493461
19 *969:A2 *970:A1 0.000141148
20 *971:A2 *970:A1 0.000155418
21 *1002:I *943:A1 3.47057e-05
22 *56:10 *98:21 0.000906999
23 *56:12 *98:21 0.0012029
24 *56:18 *970:A1 0.000306979
25 *56:18 *98:21 0.000699849
*RES
1 *992:Q *98:6 9 
2 *98:6 *970:A1 15.864 
3 *98:6 *98:21 15.004 
4 *98:21 *941:B2 5.852 
5 *98:21 *943:A1 6.164 
*END

*D_NET *99 0.0100387
*CONN
*I *943:B2 I *D gf180mcu_fd_sc_mcu7t5v0__oai22_1
*I *945:A1 I *D gf180mcu_fd_sc_mcu7t5v0__aoi21_1
*I *972:A1 I *D gf180mcu_fd_sc_mcu7t5v0__aoi22_1
*I *993:Q O *D gf180mcu_fd_sc_mcu7t5v0__dffq_1
*CAP
1 *943:B2 0.000526124
2 *945:A1 4.92494e-05
3 *972:A1 0.000597406
4 *993:Q 0.000165929
5 *99:27 0.00143657
6 *99:8 0.00162454
7 *943:B2 *912:A1 1.00164e-05
8 *943:B2 *956:A1 0.00174286
9 *943:B2 *985:CLK 5.39368e-06
10 *943:B2 *114:6 1.40331e-05
11 *943:B2 *114:12 0.000441747
12 *945:A1 *956:A1 0
13 *972:A1 *105:47 2.49113e-05
14 *972:A1 *117:25 0.000214048
15 *99:8 *105:47 1.19495e-05
16 *99:27 *945:B 3.41371e-05
17 *99:27 *993:CLK 2.88076e-05
18 *99:27 *105:47 1.70655e-05
19 *912:A2 *943:B2 0.000143837
20 *942:A2 *943:B2 1.78817e-06
21 *943:B1 *943:B2 0.000452466
22 *945:A2 *943:B2 0.00020053
23 *974:B *943:B2 2.39471e-05
24 *974:B *99:27 1.12969e-05
25 *975:A1 *972:A1 0.00034131
26 *1002:I *943:B2 0.000337769
27 *3:10 *945:A1 5.12872e-06
28 *3:10 *99:27 0.00099275
29 *56:10 *943:B2 1.32276e-05
30 *86:8 *943:B2 0.000569863
*RES
1 *993:Q *99:8 5.54 
2 *99:8 *972:A1 18.7 
3 *99:8 *99:27 12.612 
4 *99:27 *945:A1 9.312 
5 *99:27 *943:B2 18.568 
*END

*D_NET *100 0.00173334
*CONN
*I *945:B I *D gf180mcu_fd_sc_mcu7t5v0__aoi21_1
*I *974:A1 I *D gf180mcu_fd_sc_mcu7t5v0__oai21_1
*I *994:Q O *D gf180mcu_fd_sc_mcu7t5v0__dffq_1
*CAP
1 *945:B 0.000100602
2 *974:A1 6.10623e-05
3 *994:Q 0.000267185
4 *100:10 0.000428849
5 *100:10 *121:8 6.30263e-05
6 *946:I *945:B 4.67771e-06
7 *974:B *945:B 0.000391449
8 *974:B *974:A1 0.000113773
9 *974:B *100:10 3.4596e-05
10 *3:10 *945:B 6.76904e-05
11 *3:10 *974:A1 6.55399e-05
12 *3:10 *100:10 0.000100752
13 *99:27 *945:B 3.41371e-05
*RES
1 *994:Q *100:10 11.08 
2 *100:10 *974:A1 9.728 
3 *100:10 *945:B 10.456 
*END

*D_NET *101 0.00246524
*CONN
*I *947:B I *D gf180mcu_fd_sc_mcu7t5v0__oai211_1
*I *925:A1 I *D gf180mcu_fd_sc_mcu7t5v0__nand2_1
*I *995:Q O *D gf180mcu_fd_sc_mcu7t5v0__dffq_1
*CAP
1 *947:B 0.000129213
2 *925:A1 0.000321563
3 *995:Q 0
4 *101:6 0.000450776
5 *925:A1 *117:93 0
6 *947:B *904:I 0.00047924
7 *925:A2 *925:A1 0.000509988
8 *947:A1 *925:A1 0
9 *947:A1 *947:B 9.35542e-06
10 *948:A2 *947:B 0.000410048
11 *98:21 *925:A1 0.00013448
12 *98:21 *947:B 2.05781e-05
*RES
1 *995:Q *101:6 9 
2 *101:6 *925:A1 12.536 
3 *101:6 *947:B 10.872 
*END

*D_NET *102 0.00926951
*CONN
*I *1000:I I *D gf180mcu_fd_sc_mcu7t5v0__clkbuf_16
*I *998:I I *D gf180mcu_fd_sc_mcu7t5v0__clkbuf_16
*I *997:I I *D gf180mcu_fd_sc_mcu7t5v0__clkbuf_16
*I *999:I I *D gf180mcu_fd_sc_mcu7t5v0__clkbuf_16
*I *996:Z O *D gf180mcu_fd_sc_mcu7t5v0__clkbuf_16
*CAP
1 *1000:I 6.24237e-05
2 *998:I 9.07753e-05
3 *997:I 0
4 *999:I 9.54005e-05
5 *996:Z 0.000189024
6 *102:71 0.000460595
7 *102:66 0.000475805
8 *102:50 0.000209346
9 *102:43 0.000227668
10 *102:36 0.000226323
11 *102:32 0.00109711
12 *102:27 0.0010434
13 *102:11 0.000908929
14 *102:6 0.000861405
15 *999:I *985:CLK 0.00012915
16 *102:6 *968:A1 0.00010342
17 *102:11 *904:I 0.000291224
18 *102:11 *967:A2 0
19 *102:11 *968:A1 0.000124616
20 *102:11 *985:CLK 1.88794e-05
21 *102:11 *106:12 5.13977e-05
22 *102:11 *117:99 3.18325e-05
23 *102:11 *121:22 0.000336154
24 *102:27 *967:A2 3.04748e-05
25 *102:32 *966:A1 6.83829e-06
26 *102:32 *967:A2 1.66195e-05
27 *102:32 *968:A1 2.39523e-06
28 *102:32 *120:8 8.09909e-05
29 *941:A1 *102:71 0.000168794
30 *941:B2 *1000:I 8.5056e-05
31 *941:B2 *102:71 0.000121005
32 *943:A1 *1000:I 1.91996e-05
33 *944:B *102:71 0.000103483
34 *966:B *102:32 0.000231609
35 *991:D *102:6 0.00010342
36 *991:D *102:11 7.79694e-05
37 *991:D *102:27 8.72143e-05
38 *991:D *102:32 4.36957e-05
39 *1002:I *1000:I 0.000103844
40 *1002:I *102:32 0
41 *1002:I *102:66 8.72055e-05
42 *1002:I *102:71 0.000864816
43 *56:10 *102:11 0
44 *97:19 *102:66 0
45 *97:19 *102:71 0
*RES
1 *996:Z *102:6 5.23171 
2 *102:6 *102:11 7.17229 
3 *102:11 *999:I 5.436 
4 *996:Z *102:27 5.23171 
5 *102:27 *102:32 7.17229 
6 *102:32 *102:36 0.936 
7 *102:36 *997:I 4.5 
8 *102:36 *102:43 0.936 
9 *102:43 *102:50 1.248 
10 *102:50 *998:I 5.436 
11 *996:Z *102:66 5.23171 
12 *102:66 *102:71 5.78686 
13 *102:71 *1000:I 5.36543 
*END

*D_NET *103 0.00791127
*CONN
*I *979:CLK I *D gf180mcu_fd_sc_mcu7t5v0__dffq_1
*I *989:CLK I *D gf180mcu_fd_sc_mcu7t5v0__dffq_1
*I *988:CLK I *D gf180mcu_fd_sc_mcu7t5v0__dffq_1
*I *987:CLK I *D gf180mcu_fd_sc_mcu7t5v0__dffq_1
*I *986:CLK I *D gf180mcu_fd_sc_mcu7t5v0__dffq_1
*I *997:Z O *D gf180mcu_fd_sc_mcu7t5v0__clkbuf_16
*CAP
1 *979:CLK 0.000758611
2 *989:CLK 0.000813866
3 *988:CLK 0
4 *987:CLK 0.000237773
5 *986:CLK 0.000133028
6 *997:Z 0.000758611
7 *103:30 0.000924432
8 *103:10 0.00104955
9 *103:4 0.000789312
10 *979:CLK *959:A2 0
11 *979:CLK *120:39 0.00033778
12 *979:CLK *122:121 0
13 *986:CLK *958:C 0
14 *986:CLK *960:C 0
15 *989:CLK *964:A1 0
16 *103:10 *959:A2 3.96072e-05
17 *103:10 *960:C 0
18 *960:A2 *103:10 0
19 *960:A2 *103:30 0
20 *960:B *979:CLK 0
21 *960:B *103:10 6.87674e-05
22 *961:A1 *979:CLK 4.63309e-05
23 *962:A2 *989:CLK 0.000419265
24 *962:A2 *103:10 0.000648383
25 *962:A2 *103:30 0.000509988
26 *979:D *979:CLK 0
27 *987:D *987:CLK 0
28 *987:D *103:10 0.000147933
29 *988:D *979:CLK 0
30 *93:8 *979:CLK 0.000228035
*RES
1 *997:Z *103:4 4.5 
2 *103:4 *103:10 9.908 
3 *103:10 *986:CLK 9.728 
4 *103:10 *987:CLK 10.56 
5 *103:4 *103:30 1.352 
6 *103:30 *988:CLK 4.5 
7 *103:30 *989:CLK 10.428 
8 *997:Z *979:CLK 14.72 
*END

*D_NET *104 0.0113655
*CONN
*I *981:CLK I *D gf180mcu_fd_sc_mcu7t5v0__dffq_1
*I *980:CLK I *D gf180mcu_fd_sc_mcu7t5v0__dffq_1
*I *978:CLK I *D gf180mcu_fd_sc_mcu7t5v0__dffq_1
*I *991:CLK I *D gf180mcu_fd_sc_mcu7t5v0__dffq_1
*I *990:CLK I *D gf180mcu_fd_sc_mcu7t5v0__dffq_1
*I *998:Z O *D gf180mcu_fd_sc_mcu7t5v0__clkbuf_16
*CAP
1 *981:CLK 0.000198235
2 *980:CLK 0
3 *978:CLK 0.000764979
4 *991:CLK 0.00101645
5 *990:CLK 0
6 *998:Z 0.00191017
7 *104:35 0.00147072
8 *104:12 0.00202264
9 *978:CLK *107:8 0.000582267
10 *978:CLK *107:10 0
11 *978:CLK *107:16 0
12 *991:CLK *963:B 1.19584e-05
13 *991:CLK *966:A1 5.19755e-05
14 *991:CLK *117:99 1.85722e-05
15 *991:CLK *122:108 0
16 *104:12 *122:108 0
17 *104:35 *906:A1 0
18 *104:35 *926:A1 3.57634e-06
19 *104:35 *951:B 0
20 *104:35 *107:8 5.38672e-05
21 *927:A2 *104:35 0.00014878
22 *934:A2 *104:35 0.00083753
23 *934:B1 *104:35 1.70957e-06
24 *939:B2 *104:35 0.000159517
25 *948:A2 *991:CLK 0.000139043
26 *951:A2 *104:35 0.000183033
27 *963:A1 *991:CLK 0
28 *964:B *991:CLK 0
29 *966:A2 *991:CLK 0.000582256
30 *966:A2 *104:12 0.000500772
31 *968:A2 *991:CLK 7.16355e-05
32 *980:D *104:35 5.78399e-05
33 *990:D *104:12 0.000197059
34 *49:32 *104:35 2.13874e-05
35 *70:8 *104:35 0.000354419
36 *95:8 *991:CLK 5.13239e-06
*RES
1 *998:Z *104:12 22.236 
2 *104:12 *990:CLK 4.5 
3 *104:12 *991:CLK 12.404 
4 *998:Z *104:35 12.196 
5 *104:35 *978:CLK 20.572 
6 *104:35 *980:CLK 4.5 
7 *998:Z *981:CLK 10.352 
*END

*D_NET *105 0.0104732
*CONN
*I *994:CLK I *D gf180mcu_fd_sc_mcu7t5v0__dffq_1
*I *993:CLK I *D gf180mcu_fd_sc_mcu7t5v0__dffq_1
*I *992:CLK I *D gf180mcu_fd_sc_mcu7t5v0__dffq_1
*I *995:CLK I *D gf180mcu_fd_sc_mcu7t5v0__dffq_1
*I *977:CLK I *D gf180mcu_fd_sc_mcu7t5v0__dffq_1
*I *999:Z O *D gf180mcu_fd_sc_mcu7t5v0__clkbuf_16
*CAP
1 *994:CLK 0
2 *993:CLK 0.000747565
3 *992:CLK 0.000103358
4 *995:CLK 0.000154027
5 *977:CLK 0.000589309
6 *999:Z 0.000151531
7 *105:47 0.00177061
8 *105:30 0.00113724
9 *105:8 0.00101102
10 *105:6 0.000430056
11 *977:CLK *913:A1 2.14739e-05
12 *977:CLK *924:A2 0.000569975
13 *977:CLK *121:12 0
14 *977:CLK *121:50 8.14957e-05
15 *995:CLK *121:50 2.81577e-05
16 *105:6 *121:12 0
17 *105:8 *121:12 0
18 *970:A1 *992:CLK 0.00116557
19 *970:A1 *995:CLK 2.57864e-05
20 *970:A1 *105:30 0.000492316
21 *972:A1 *105:47 2.49113e-05
22 *994:D *105:47 5.78489e-05
23 *3:10 *993:CLK 0.000146542
24 *56:18 *992:CLK 0.00116851
25 *56:18 *105:30 0.00052527
26 *98:21 *995:CLK 1.28023e-05
27 *99:8 *105:47 1.19495e-05
28 *99:27 *993:CLK 2.88076e-05
29 *99:27 *105:47 1.70655e-05
*RES
1 *999:Z *105:6 5.852 
2 *105:6 *105:8 1.56 
3 *105:8 *977:CLK 8.972 
4 *105:8 *995:CLK 14.852 
5 *105:6 *105:30 5.852 
6 *105:30 *992:CLK 12.224 
7 *105:30 *105:47 15.656 
8 *105:47 *993:CLK 15.136 
9 *105:47 *994:CLK 9 
*END

*D_NET *106 0.0103902
*CONN
*I *982:CLK I *D gf180mcu_fd_sc_mcu7t5v0__dffq_1
*I *984:CLK I *D gf180mcu_fd_sc_mcu7t5v0__dffq_1
*I *983:CLK I *D gf180mcu_fd_sc_mcu7t5v0__dffq_1
*I *985:CLK I *D gf180mcu_fd_sc_mcu7t5v0__dffq_1
*I *1001:I I *D gf180mcu_fd_sc_mcu7t5v0__clkbuf_2
*I *1000:Z O *D gf180mcu_fd_sc_mcu7t5v0__clkbuf_16
*CAP
1 *982:CLK 0.000895763
2 *984:CLK 0.000393663
3 *983:CLK 0.000108979
4 *985:CLK 0.000950213
5 *1001:I 0
6 *1000:Z 0.00171657
7 *106:12 0.00126838
8 *982:CLK *122:16 6.18411e-06
9 *982:CLK *122:25 0.00029966
10 *983:CLK *122:16 0.000509988
11 *984:CLK *956:A1 0.00015815
12 *984:CLK *122:16 0.0010961
13 *984:CLK *122:77 0.000113027
14 *985:CLK *956:A1 9.95746e-05
15 *106:12 *904:I 0.000898587
16 *943:B2 *985:CLK 5.39368e-06
17 *983:D *982:CLK 8.14679e-05
18 *984:D *984:CLK 0.000346997
19 *985:D *985:CLK 2.11438e-05
20 *999:I *985:CLK 0.00012915
21 *1002:I *985:CLK 0.000172014
22 *1003:I *985:CLK 0.000208409
23 *56:10 *985:CLK 0
24 *56:10 *106:12 0.000617599
25 *98:21 *106:12 0.000222889
26 *102:11 *985:CLK 1.88794e-05
27 *102:11 *106:12 5.13977e-05
*RES
1 *1000:Z *106:12 19.324 
2 *106:12 *1001:I 4.5 
3 *106:12 *985:CLK 20.988 
4 *1000:Z *983:CLK 10.352 
5 *1000:Z *984:CLK 13.576 
6 *1000:Z *982:CLK 16.176 
*END

*D_NET *107 0.00758687
*CONN
*I *906:A1 I *D gf180mcu_fd_sc_mcu7t5v0__and4_1
*I *905:A1 I *D gf180mcu_fd_sc_mcu7t5v0__and3_1
*I *926:A1 I *D gf180mcu_fd_sc_mcu7t5v0__aoi21_1
*I *949:A1 I *D gf180mcu_fd_sc_mcu7t5v0__nand2_1
*I *929:A2 I *D gf180mcu_fd_sc_mcu7t5v0__and2_1
*I *930:A1 I *D gf180mcu_fd_sc_mcu7t5v0__xnor2_1
*I *978:Q O *D gf180mcu_fd_sc_mcu7t5v0__dffq_1
*CAP
1 *906:A1 0.00033145
2 *905:A1 0
3 *926:A1 7.61678e-05
4 *949:A1 8.68163e-05
5 *929:A2 0.000533816
6 *930:A1 0
7 *978:Q 0.000239281
8 *107:62 0.000594784
9 *107:47 0.000605198
10 *107:16 0.000861634
11 *107:10 0.000862594
12 *107:8 0.000952937
13 *906:A1 *906:A2 6.39922e-05
14 *906:A1 *108:28 1.29841e-05
15 *929:A2 *928:A2 2.65121e-05
16 *929:A2 *949:A2 7.52395e-06
17 *949:A1 *949:A2 0.000269899
18 *107:10 *108:17 0.000295339
19 *107:16 *949:A2 1.43411e-05
20 *107:16 *108:8 1.29686e-05
21 *107:16 *108:17 9.15907e-05
22 *107:47 *108:17 9.80713e-06
23 *107:47 *108:28 5.65788e-06
24 *107:62 *926:B 4.51519e-05
25 *107:62 *108:28 1.78512e-05
26 *931:A1 *929:A2 1.48584e-05
27 *931:A2 *929:A2 0.000102627
28 *931:B1 *929:A2 3.07277e-05
29 *933:A2 *906:A1 2.39156e-06
30 *934:A2 *929:A2 0.000271764
31 *978:CLK *107:8 0.000582267
32 *978:CLK *107:10 0
33 *978:CLK *107:16 0
34 *980:D *926:A1 0.000250827
35 *980:D *107:47 0.000112226
36 *70:8 *906:A1 0
37 *74:6 *929:A2 5.63044e-06
38 *74:6 *107:16 3.17817e-05
39 *94:21 *929:A2 0.000106025
40 *104:35 *906:A1 0
41 *104:35 *926:A1 3.57634e-06
42 *104:35 *107:8 5.38672e-05
*RES
1 *978:Q *107:8 11.392 
2 *107:8 *107:10 4.472 
3 *107:10 *107:16 6.996 
4 *107:16 *930:A1 4.5 
5 *107:16 *929:A2 17.348 
6 *107:10 *949:A1 9.936 
7 *107:8 *107:47 1.768 
8 *107:47 *926:A1 9.936 
9 *107:47 *107:62 6.58 
10 *107:62 *905:A1 4.5 
11 *107:62 *906:A1 15.996 
*END

*D_NET *108 0.00693513
*CONN
*I *928:A2 I *D gf180mcu_fd_sc_mcu7t5v0__or2_1
*I *906:A2 I *D gf180mcu_fd_sc_mcu7t5v0__and4_1
*I *905:A2 I *D gf180mcu_fd_sc_mcu7t5v0__and3_1
*I *926:A2 I *D gf180mcu_fd_sc_mcu7t5v0__aoi21_1
*I *930:A2 I *D gf180mcu_fd_sc_mcu7t5v0__xnor2_1
*I *979:Q O *D gf180mcu_fd_sc_mcu7t5v0__dffq_1
*CAP
1 *928:A2 0.00026703
2 *906:A2 0.000141386
3 *905:A2 0
4 *926:A2 0
5 *930:A2 0
6 *979:Q 0.00020994
7 *108:28 0.000392538
8 *108:17 0.000994915
9 *108:8 0.00122073
10 *906:A2 *906:A4 2.39523e-06
11 *906:A2 *926:B 8.35223e-05
12 *906:A2 *109:12 0.000208806
13 *108:17 *949:A2 0.000341092
14 *108:28 *926:B 0.000447626
15 *906:A1 *906:A2 6.39922e-05
16 *906:A1 *108:28 1.29841e-05
17 *929:A2 *928:A2 2.65121e-05
18 *931:A1 *928:A2 2.76367e-05
19 *931:A2 *928:A2 4.67771e-06
20 *931:B1 *928:A2 0.000281653
21 *931:B2 *928:A2 0.000542895
22 *933:A2 *906:A2 0.000346997
23 *934:A2 *108:17 0
24 *950:A2 *108:17 0.000107648
25 *980:D *108:17 0.000280581
26 *980:D *108:28 0.000100557
27 *74:6 *928:A2 0.000103788
28 *74:6 *108:8 0.000194511
29 *94:21 *928:A2 9.75059e-05
30 *107:10 *108:17 0.000295339
31 *107:16 *108:8 1.29686e-05
32 *107:16 *108:17 9.15907e-05
33 *107:47 *108:17 9.80713e-06
34 *107:47 *108:28 5.65788e-06
35 *107:62 *108:28 1.78512e-05
*RES
1 *979:Q *108:8 6.164 
2 *108:8 *930:A2 4.5 
3 *108:8 *108:17 12.3 
4 *108:17 *926:A2 9 
5 *108:17 *108:28 2.704 
6 *108:28 *905:A2 9 
7 *108:28 *906:A2 10.872 
8 *108:8 *928:A2 16.62 
*END

*D_NET *109 0.00242641
*CONN
*I *906:A4 I *D gf180mcu_fd_sc_mcu7t5v0__and4_1
*I *905:A3 I *D gf180mcu_fd_sc_mcu7t5v0__and3_1
*I *926:B I *D gf180mcu_fd_sc_mcu7t5v0__aoi21_1
*I *980:Q O *D gf180mcu_fd_sc_mcu7t5v0__dffq_1
*CAP
1 *906:A4 0.000251328
2 *905:A3 0
3 *926:B 7.89176e-05
4 *980:Q 0.000274139
5 *109:12 0.000259124
6 *109:8 0.000705674
7 *906:A4 *906:A3 3.3698e-05
8 *906:A2 *906:A4 2.39523e-06
9 *906:A2 *926:B 8.35223e-05
10 *906:A2 *109:12 0.000208806
11 *933:A2 *906:A4 3.60231e-05
12 *107:62 *926:B 4.51519e-05
13 *108:28 *926:B 0.000447626
*RES
1 *980:Q *109:8 6.372 
2 *109:8 *109:12 6.268 
3 *109:12 *926:B 10.352 
4 *109:12 *905:A3 9 
5 *109:8 *906:A4 6.372 
*END

*D_NET *110 0.00295259
*CONN
*I *933:A1 I *D gf180mcu_fd_sc_mcu7t5v0__xor2_1
*I *906:A3 I *D gf180mcu_fd_sc_mcu7t5v0__and4_1
*I *981:Q O *D gf180mcu_fd_sc_mcu7t5v0__dffq_1
*CAP
1 *933:A1 0
2 *906:A3 0.000291083
3 *981:Q 0.000922169
4 *110:12 0.00121325
5 *906:A4 *906:A3 3.3698e-05
6 *933:A2 *906:A3 0.00049239
7 *50:8 *906:A3 0
8 *50:8 *110:12 0
*RES
1 *981:Q *110:12 20.364 
2 *110:12 *906:A3 7.724 
3 *110:12 *933:A1 4.5 
*END

*D_NET *111 0.00440375
*CONN
*I *909:A2 I *D gf180mcu_fd_sc_mcu7t5v0__nand4_1
*I *908:A2 I *D gf180mcu_fd_sc_mcu7t5v0__nand3_1
*I *907:A1 I *D gf180mcu_fd_sc_mcu7t5v0__nand2_1
*I *935:A1 I *D gf180mcu_fd_sc_mcu7t5v0__xor2_1
*I *982:Q O *D gf180mcu_fd_sc_mcu7t5v0__dffq_1
*CAP
1 *909:A2 0.000236462
2 *908:A2 2.99379e-05
3 *907:A1 0.000125867
4 *935:A1 0.000282405
5 *982:Q 0
6 *111:32 0.000759453
7 *111:17 0.00108812
8 *111:4 0.000751607
9 *907:A1 *938:A1 0
10 *908:A2 *938:A1 2.73715e-06
11 *909:A2 *909:A1 3.60303e-05
12 *111:32 *938:A1 0.000654565
13 *111:32 *112:8 8.14679e-05
14 *909:A4 *909:A2 4.02644e-05
15 *938:A2 *111:32 6.38863e-05
16 *940:A2 *909:A2 6.9077e-05
17 *940:A2 *111:32 4.18042e-05
18 *50:8 *935:A1 6.18411e-06
19 *50:19 *907:A1 4.07478e-05
20 *50:19 *935:A1 5.06503e-05
21 *50:19 *111:17 0
22 *50:27 *907:A1 3.42651e-05
23 *50:27 *111:32 8.21146e-06
*RES
1 *982:Q *111:4 4.5 
2 *111:4 *935:A1 6.788 
3 *111:4 *111:17 3.536 
4 *111:17 *907:A1 5.748 
5 *111:17 *111:32 5.096 
6 *111:32 *908:A2 4.812 
7 *111:32 *909:A2 6.684 
*END

*D_NET *112 0.00315307
*CONN
*I *938:A1 I *D gf180mcu_fd_sc_mcu7t5v0__xor2_1
*I *909:A1 I *D gf180mcu_fd_sc_mcu7t5v0__nand4_1
*I *908:A1 I *D gf180mcu_fd_sc_mcu7t5v0__nand3_1
*I *983:Q O *D gf180mcu_fd_sc_mcu7t5v0__dffq_1
*CAP
1 *938:A1 0.000144417
2 *909:A1 0.000247596
3 *908:A1 0
4 *983:Q 0
5 *112:8 0.0003737
6 *112:4 0.000270522
7 *909:A1 *909:A3 8.85981e-05
8 *907:A1 *938:A1 0
9 *908:A2 *938:A1 2.73715e-06
10 *909:A2 *909:A1 3.60303e-05
11 *909:A4 *909:A1 3.19367e-05
12 *938:A2 *938:A1 4.07478e-05
13 *940:A2 *909:A1 0.000207592
14 *940:A2 *112:8 0.000272942
15 *50:27 *909:A1 5.38568e-05
16 *50:27 *938:A1 0.000145598
17 *50:27 *112:8 0.000500761
18 *111:32 *938:A1 0.000654565
19 *111:32 *112:8 8.14679e-05
*RES
1 *983:Q *112:4 4.5 
2 *112:4 *112:8 2.08 
3 *112:8 *908:A1 4.5 
4 *112:8 *909:A1 15.684 
5 *112:4 *938:A1 7.1 
*END

*D_NET *113 0.0021224
*CONN
*I *940:A1 I *D gf180mcu_fd_sc_mcu7t5v0__xor2_1
*I *909:A3 I *D gf180mcu_fd_sc_mcu7t5v0__nand4_1
*I *984:Q O *D gf180mcu_fd_sc_mcu7t5v0__dffq_1
*CAP
1 *940:A1 0
2 *909:A3 0.000224431
3 *984:Q 0.000557238
4 *113:10 0.00078167
5 *909:A1 *909:A3 8.85981e-05
6 *909:A4 *909:A3 0
7 *940:A2 *113:10 3.4596e-05
8 *53:12 *909:A3 0.000435869
*RES
1 *984:Q *113:10 8.348 
2 *113:10 *909:A3 15.684 
3 *113:10 *940:A1 4.5 
*END

*D_NET *114 0.00230399
*CONN
*I *942:A1 I *D gf180mcu_fd_sc_mcu7t5v0__xor2_1
*I *911:A1 I *D gf180mcu_fd_sc_mcu7t5v0__and2_1
*I *912:A1 I *D gf180mcu_fd_sc_mcu7t5v0__nand2_1
*I *985:Q O *D gf180mcu_fd_sc_mcu7t5v0__dffq_1
*CAP
1 *942:A1 0
2 *911:A1 0
3 *912:A1 0.000203745
4 *985:Q 0.000220374
5 *114:12 0.000239036
6 *114:6 0.000255664
7 *114:12 *956:A1 9.76261e-05
8 *911:A2 *912:A1 7.89589e-05
9 *912:A2 *912:A1 6.06017e-05
10 *942:A2 *114:6 4.18157e-05
11 *943:B1 *114:12 0.000271753
12 *943:B2 *912:A1 1.00164e-05
13 *943:B2 *114:6 1.40331e-05
14 *943:B2 *114:12 0.000441747
15 *974:B *114:12 6.99894e-05
16 *1002:I *912:A1 1.51046e-05
17 *86:8 *114:12 0.000283521
*RES
1 *985:Q *114:6 5.852 
2 *114:6 *114:12 10.768 
3 *114:12 *912:A1 5.956 
4 *114:12 *911:A1 4.5 
5 *114:6 *942:A1 4.5 
*END

*D_NET *115 0.00293733
*CONN
*I *922:A1 I *D gf180mcu_fd_sc_mcu7t5v0__oai21_1
*I *921:A1 I *D gf180mcu_fd_sc_mcu7t5v0__nand2_1
*I *1005:Z O *D gf180mcu_fd_sc_mcu7t5v0__buf_2
*CAP
1 *922:A1 0
2 *921:A1 0.000220488
3 *1005:Z 0.000271241
4 *115:8 0.000491729
5 *921:A1 *918:A1 0.000192388
6 *921:A1 *920:A1 6.55615e-05
7 *921:A1 *124:12 0.000325566
8 *918:A2 *921:A1 6.40967e-05
9 *922:B *921:A1 4.18042e-05
10 *923:A1 *115:8 1.12327e-05
11 *923:A2 *115:8 0
12 *923:A4 *115:8 0.000509988
13 *47:32 *115:8 0.000465169
14 *47:34 *921:A1 1.07369e-05
15 *47:34 *115:8 0.00021731
16 *47:47 *921:A1 5.65788e-06
17 *47:51 *921:A1 2.39077e-05
18 *47:51 *115:8 2.81522e-06
19 *62:8 *921:A1 1.76416e-05
*RES
1 *1005:Z *115:8 8.244 
2 *115:8 *921:A1 15.996 
3 *115:8 *922:A1 4.5 
*END

*D_NET *116 0.0043138
*CONN
*I *913:A1 I *D gf180mcu_fd_sc_mcu7t5v0__nand2_1
*I *924:A1 I *D gf180mcu_fd_sc_mcu7t5v0__nand3_1
*I *1006:Z O *D gf180mcu_fd_sc_mcu7t5v0__buf_2
*CAP
1 *913:A1 0.00049343
2 *924:A1 0
3 *1006:Z 0.000630117
4 *116:8 0.00112355
5 *913:A1 *924:A2 0.00170666
6 *913:A1 *117:74 0
7 *913:A1 *121:22 0
8 *913:A1 *121:50 0.000113016
9 *116:8 *924:A2 0.000175822
10 *116:8 *117:74 0
11 *917:A1 *116:8 4.9736e-05
12 *977:CLK *913:A1 2.14739e-05
*RES
1 *1006:Z *116:8 13.68 
2 *116:8 *924:A1 9 
3 *116:8 *913:A1 14.2 
*END

*D_NET *117 0.0340888
*CONN
*I *971:A1 I *D gf180mcu_fd_sc_mcu7t5v0__nor2_1
*I *904:I I *D gf180mcu_fd_sc_mcu7t5v0__clkinv_1
*I *952:A1 I *D gf180mcu_fd_sc_mcu7t5v0__or2_1
*I *968:C I *D gf180mcu_fd_sc_mcu7t5v0__aoi211_1
*I *976:B I *D gf180mcu_fd_sc_mcu7t5v0__aoi21_1
*I *948:B I *D gf180mcu_fd_sc_mcu7t5v0__aoi21_1
*I *960:C I *D gf180mcu_fd_sc_mcu7t5v0__aoi211_1
*I *958:C I *D gf180mcu_fd_sc_mcu7t5v0__aoi211_1
*I *973:A1 I *D gf180mcu_fd_sc_mcu7t5v0__nor2_1
*I *1007:Z O *D gf180mcu_fd_sc_mcu7t5v0__buf_2
*CAP
1 *971:A1 0
2 *904:I 0.00110427
3 *952:A1 0.000772779
4 *968:C 3.79257e-05
5 *976:B 0
6 *948:B 0
7 *960:C 0.000157288
8 *958:C 0.000233403
9 *973:A1 9.95365e-05
10 *1007:Z 0.000139696
11 *117:99 0.00107888
12 *117:93 0.00184005
13 *117:74 0.00125906
14 *117:43 0.0018723
15 *117:35 0.00197681
16 *117:31 0.00158411
17 *117:25 0.00122517
18 *117:8 0.00116695
19 *904:I *122:16 4.02896e-05
20 *952:A1 *122:31 2.79913e-05
21 *952:A1 *122:33 0
22 *958:C *958:A1 0.000215819
23 *973:A1 *972:B2 0.000113027
24 *117:31 *903:I 0
25 *117:43 *957:A2 5.36452e-06
26 *117:43 *960:A1 5.63044e-06
27 *117:74 *924:A2 6.67071e-05
28 *117:74 *121:22 0.000220264
29 *117:74 *121:50 8.88029e-05
30 *117:93 *121:12 3.4596e-05
31 *117:93 *121:22 0.000557839
32 *117:99 *968:A1 0.001133
33 *117:99 *121:22 0.000847758
34 *902:I *952:A1 0.000102675
35 *902:I *117:99 7.42486e-05
36 *913:A1 *117:74 0
37 *923:A1 *117:43 0
38 *923:A2 *117:43 0
39 *924:A3 *117:35 0.00112993
40 *924:A3 *117:43 0.00011813
41 *925:A1 *117:93 0
42 *929:A1 *958:C 0.000556029
43 *929:A1 *960:C 0.000471934
44 *937:B1 *952:A1 0.00042999
45 *939:A1 *952:A1 3.34449e-05
46 *939:B2 *952:A1 0.00165914
47 *939:C2 *952:A1 0.000489387
48 *947:A1 *904:I 1.32276e-05
49 *947:A1 *117:93 0.000355275
50 *947:B *904:I 0.00047924
51 *948:A1 *117:35 0.000121519
52 *948:A1 *117:43 1.41781e-05
53 *948:A2 *904:I 0.000289908
54 *948:A2 *117:99 0.00166222
55 *953:A2 *952:A1 1.07369e-05
56 *955:A2 *904:I 0.000113027
57 *958:B *958:C 0.000261696
58 *960:A2 *117:43 0.000866985
59 *960:B *960:C 1.823e-05
60 *967:A1 *952:A1 0.000865238
61 *968:A2 *117:99 0.000337769
62 *968:B *952:A1 0.000279926
63 *968:B *117:99 9.11499e-05
64 *971:A2 *117:25 0
65 *972:A1 *117:25 0.000214048
66 *972:A2 *117:25 0
67 *975:A1 *973:A1 0.000224754
68 *975:A1 *117:25 9.78351e-06
69 *976:A1 *117:74 0.000605842
70 *976:A1 *117:93 0.000125283
71 *976:A2 *117:93 0.000364104
72 *986:CLK *958:C 0
73 *986:CLK *960:C 0
74 *991:CLK *117:99 1.85722e-05
75 *992:D *117:25 0.000340506
76 *1002:I *904:I 0
77 *3:10 *117:8 0
78 *3:10 *117:93 0
79 *41:8 *973:A1 0.000276018
80 *46:10 *952:A1 0.00125053
81 *47:8 *117:35 0
82 *53:12 *904:I 5.65788e-06
83 *56:10 *904:I 8.69612e-05
84 *56:12 *904:I 2.80993e-05
85 *84:14 *904:I 0.000556686
86 *92:12 *958:C 9.77992e-06
87 *102:11 *904:I 0.000291224
88 *102:11 *117:99 3.18325e-05
89 *103:10 *960:C 0
90 *106:12 *904:I 0.000898587
91 *116:8 *117:74 0
*RES
1 *1007:Z *117:8 9.936 
2 *117:8 *973:A1 10.352 
3 *117:8 *117:25 11.676 
4 *117:25 *117:31 2.184 
5 *117:31 *117:35 4.992 
6 *117:35 *117:43 15.42 
7 *117:43 *958:C 12.432 
8 *117:43 *960:C 10.352 
9 *117:35 *948:B 4.5 
10 *117:31 *117:74 15.24 
11 *117:74 *976:B 4.5 
12 *117:74 *117:93 14.928 
13 *117:93 *117:99 11.364 
14 *117:99 *968:C 9.312 
15 *117:99 *952:A1 20.96 
16 *117:93 *904:I 26.084 
17 *117:25 *971:A1 4.5 
*END

*D_NET *118 0.00202052
*CONN
*I *1016:I I *D gf180mcu_fd_sc_mcu7t5v0__buf_2
*I *977:Q O *D gf180mcu_fd_sc_mcu7t5v0__dffq_1
*CAP
1 *1016:I 0.000543962
2 *977:Q 0.000543962
3 *1016:I *916:A1 0.000349268
4 *923:A1 *1016:I 3.48247e-05
5 *924:A3 *1016:I 2.6679e-05
6 *968:A2 *1016:I 4.04633e-05
7 *47:8 *1016:I 4.15898e-06
8 *47:14 *1016:I 0.000477203
*RES
1 *977:Q *1016:I 23.096 
*END

*D_NET *119 0.00116889
*CONN
*I *944:A1 I *D gf180mcu_fd_sc_mcu7t5v0__aoi21_1
*I *1017:Z O *D gf180mcu_fd_sc_mcu7t5v0__clkbuf_1
*CAP
1 *944:A1 0.000249833
2 *1017:Z 0.000249833
3 *941:A1 *944:A1 0.000113027
4 *941:A2 *944:A1 0.000286088
5 *944:A2 *944:A1 3.26853e-05
6 *947:A1 *944:A1 0.000188241
7 *1017:I *944:A1 4.91818e-05
*RES
1 *1017:Z *944:A1 20.6 
*END

*D_NET *120 0.0155502
*CONN
*I *965:A2 I *D gf180mcu_fd_sc_mcu7t5v0__oai21_1
*I *966:A1 I *D gf180mcu_fd_sc_mcu7t5v0__aoi21_1
*I *963:A2 I *D gf180mcu_fd_sc_mcu7t5v0__oai21_1
*I *961:A2 I *D gf180mcu_fd_sc_mcu7t5v0__oai21_1
*I *962:A1 I *D gf180mcu_fd_sc_mcu7t5v0__aoi21_1
*I *959:A2 I *D gf180mcu_fd_sc_mcu7t5v0__nor2_1
*I *960:A1 I *D gf180mcu_fd_sc_mcu7t5v0__aoi211_1
*I *957:A2 I *D gf180mcu_fd_sc_mcu7t5v0__nor2_1
*I *958:A1 I *D gf180mcu_fd_sc_mcu7t5v0__aoi211_1
*I *964:A1 I *D gf180mcu_fd_sc_mcu7t5v0__aoi21_1
*I *1002:Z O *D gf180mcu_fd_sc_mcu7t5v0__buf_2
*CAP
1 *965:A2 0
2 *966:A1 0.000356176
3 *963:A2 0
4 *961:A2 0
5 *962:A1 0
6 *959:A2 0.000152053
7 *960:A1 9.41563e-05
8 *957:A2 5.58598e-05
9 *958:A1 0.000172788
10 *964:A1 0.000736748
11 *1002:Z 0.000193342
12 *120:80 0.000198046
13 *120:47 0.000493639
14 *120:45 0.000601298
15 *120:43 0.000439998
16 *120:39 0.000883411
17 *120:24 0.00169647
18 *120:18 0.000614628
19 *120:12 0.000817448
20 *120:8 0.000268151
21 *120:12 *963:B 0.00031698
22 *120:18 *963:B 0.000362253
23 *120:18 *122:108 4.07478e-05
24 *120:24 *122:108 0.000488468
25 *120:39 *122:108 0
26 *902:I *120:18 3.20057e-06
27 *929:A1 *958:A1 0.00019118
28 *929:A1 *120:43 0.000820548
29 *929:A1 *120:45 0.000939346
30 *929:A1 *120:47 0.000629205
31 *958:A2 *957:A2 2.39156e-06
32 *958:A2 *958:A1 4.18042e-05
33 *958:C *958:A1 0.000215819
34 *960:A2 *958:A1 0
35 *960:A2 *960:A1 1.40331e-05
36 *960:A2 *120:47 0
37 *960:B *959:A2 0.000256274
38 *962:A2 *959:A2 1.60338e-05
39 *962:A2 *120:80 2.81522e-06
40 *963:A1 *120:18 2.2404e-05
41 *966:A2 *964:A1 0.00052527
42 *966:A2 *966:A1 0.000180942
43 *966:A2 *120:18 6.59135e-05
44 *966:A2 *120:24 0.00052527
45 *966:B *966:A1 0.000428201
46 *966:B *120:12 0.000597045
47 *979:CLK *959:A2 0
48 *979:CLK *120:39 0.00033778
49 *987:D *960:A1 1.40761e-05
50 *988:D *120:80 3.4596e-05
51 *989:D *964:A1 0.00012524
52 *989:CLK *964:A1 0
53 *990:D *966:A1 0.00033778
54 *991:CLK *966:A1 5.19755e-05
55 *1002:I *120:8 3.91896e-05
56 *62:8 *958:A1 0
57 *92:12 *957:A2 1.07369e-05
58 *102:32 *966:A1 6.83829e-06
59 *102:32 *120:8 8.09909e-05
60 *103:10 *959:A2 3.96072e-05
61 *117:43 *957:A2 5.36452e-06
62 *117:43 *960:A1 5.63044e-06
*RES
1 *1002:Z *120:8 5.956 
2 *120:8 *120:12 6.476 
3 *120:12 *120:18 8.244 
4 *120:18 *120:24 7.204 
5 *120:24 *964:A1 14.824 
6 *120:24 *120:39 9.804 
7 *120:39 *120:43 6.684 
8 *120:43 *120:45 2.6 
9 *120:45 *120:47 1.976 
10 *120:47 *958:A1 11.08 
11 *120:47 *957:A2 9.312 
12 *120:45 *960:A1 9.52 
13 *120:43 *120:80 4.812 
14 *120:80 *959:A2 5.852 
15 *120:80 *962:A1 4.5 
16 *120:39 *961:A2 4.5 
17 *120:18 *963:A2 4.5 
18 *120:12 *966:A1 13.264 
19 *120:8 *965:A2 4.5 
*END

*D_NET *121 0.0144578
*CONN
*I *974:A2 I *D gf180mcu_fd_sc_mcu7t5v0__oai21_1
*I *913:A2 I *D gf180mcu_fd_sc_mcu7t5v0__nand2_1
*I *924:A2 I *D gf180mcu_fd_sc_mcu7t5v0__nand3_1
*I *967:A2 I *D gf180mcu_fd_sc_mcu7t5v0__nor2_1
*I *968:A1 I *D gf180mcu_fd_sc_mcu7t5v0__aoi211_1
*I *1003:Z O *D gf180mcu_fd_sc_mcu7t5v0__buf_2
*CAP
1 *974:A2 0
2 *913:A2 0
3 *924:A2 0.00033039
4 *967:A2 0.000649824
5 *968:A1 0.000143215
6 *1003:Z 0.000508464
7 *121:50 0.000480699
8 *121:22 0.00141989
9 *121:12 0.00183902
10 *121:8 0.00157032
11 *913:A1 *924:A2 0.00170666
12 *913:A1 *121:22 0
13 *913:A1 *121:50 0.000113016
14 *947:A1 *121:22 1.27019e-05
15 *974:B *121:8 7.87395e-06
16 *974:B *121:12 7.32829e-06
17 *976:A1 *121:22 7.29199e-05
18 *976:A1 *121:50 0.000534077
19 *976:A2 *121:22 0.000152316
20 *977:CLK *924:A2 0.000569975
21 *977:CLK *121:12 0
22 *977:CLK *121:50 8.14957e-05
23 *991:D *967:A2 0
24 *991:D *968:A1 7.96342e-05
25 *995:D *121:12 8.14679e-05
26 *995:CLK *121:50 2.81577e-05
27 *1002:I *967:A2 0.000266842
28 *3:10 *121:12 0
29 *100:10 *121:8 6.30263e-05
30 *102:6 *968:A1 0.00010342
31 *102:11 *967:A2 0
32 *102:11 *968:A1 0.000124616
33 *102:11 *121:22 0.000336154
34 *102:27 *967:A2 3.04748e-05
35 *102:32 *967:A2 1.66195e-05
36 *102:32 *968:A1 2.39523e-06
37 *105:6 *121:12 0
38 *105:8 *121:12 0
39 *116:8 *924:A2 0.000175822
40 *117:74 *924:A2 6.67071e-05
41 *117:74 *121:22 0.000220264
42 *117:74 *121:50 8.88029e-05
43 *117:93 *121:12 3.4596e-05
44 *117:93 *121:22 0.000557839
45 *117:99 *968:A1 0.001133
46 *117:99 *121:22 0.000847758
*RES
1 *1003:Z *121:8 8.036 
2 *121:8 *121:12 7.072 
3 *121:12 *121:22 17.632 
4 *121:22 *968:A1 7.516 
5 *121:22 *967:A2 18.908 
6 *121:12 *121:50 11.288 
7 *121:50 *924:A2 18.492 
8 *121:50 *913:A2 4.5 
9 *121:8 *974:A2 4.5 
*END

*D_NET *122 0.0294474
*CONN
*I *950:A1 I *D gf180mcu_fd_sc_mcu7t5v0__nand2_1
*I *949:A2 I *D gf180mcu_fd_sc_mcu7t5v0__nand2_1
*I *961:B I *D gf180mcu_fd_sc_mcu7t5v0__oai21_1
*I *955:A1 I *D gf180mcu_fd_sc_mcu7t5v0__nand2_1
*I *956:A1 I *D gf180mcu_fd_sc_mcu7t5v0__nand2_1
*I *953:A1 I *D gf180mcu_fd_sc_mcu7t5v0__nand2_1
*I *951:B I *D gf180mcu_fd_sc_mcu7t5v0__oai21_1
*I *965:B I *D gf180mcu_fd_sc_mcu7t5v0__oai21_1
*I *963:B I *D gf180mcu_fd_sc_mcu7t5v0__oai21_1
*I *954:A1 I *D gf180mcu_fd_sc_mcu7t5v0__nand2_1
*I *1004:Z O *D gf180mcu_fd_sc_mcu7t5v0__buf_2
*CAP
1 *950:A1 0
2 *949:A2 0.000504641
3 *961:B 6.06099e-05
4 *955:A1 0
5 *956:A1 0.000967123
6 *953:A1 0.000149476
7 *951:B 0.000851634
8 *965:B 4.12973e-05
9 *963:B 0.00123735
10 *954:A1 0
11 *1004:Z 0.000198424
12 *122:121 0.000984556
13 *122:108 0.00150427
14 *122:77 0.000973351
15 *122:33 0.000650559
16 *122:31 0.00177614
17 *122:25 0.00128358
18 *122:16 0.0010297
19 *122:10 0.000689099
20 *902:I *963:B 0.000408082
21 *902:I *122:33 3.7145e-05
22 *904:I *122:16 4.02896e-05
23 *929:A2 *949:A2 7.52395e-06
24 *931:A1 *949:A2 0.000161537
25 *931:B2 *949:A2 7.93873e-05
26 *934:A2 *949:A2 4.41605e-05
27 *934:A2 *951:B 8.21146e-06
28 *934:B1 *951:B 0.000122244
29 *934:B2 *951:B 0.00126031
30 *934:C *951:B 9.27006e-05
31 *936:I *122:25 0.000782893
32 *936:I *122:31 0.000105623
33 *937:A2 *951:B 0.000978486
34 *937:B1 *122:31 0
35 *943:B2 *956:A1 0.00174286
36 *945:A1 *956:A1 0
37 *949:A1 *949:A2 0.000269899
38 *950:A2 *949:A2 0.0011905
39 *951:A1 *951:B 0.000192903
40 *951:A2 *951:B 1.23682e-05
41 *952:A1 *122:31 2.79913e-05
42 *952:A1 *122:33 0
43 *953:A2 *122:31 5.63044e-06
44 *955:A2 *122:16 0.000723738
45 *961:A1 *122:108 6.18411e-06
46 *961:A1 *122:121 0
47 *963:A1 *963:B 2.36218e-05
48 *965:A1 *963:B 0.000355275
49 *965:A1 *122:33 0.000405865
50 *966:B *963:B 2.17484e-05
51 *974:B *956:A1 0.000374634
52 *974:B *122:16 1.91996e-05
53 *974:B *122:77 1.12327e-05
54 *979:CLK *122:121 0
55 *982:D *953:A1 1.65142e-05
56 *982:D *122:25 2.87008e-05
57 *982:CLK *122:16 6.18411e-06
58 *982:CLK *122:25 0.00029966
59 *983:D *122:16 5.60123e-05
60 *983:CLK *122:16 0.000509988
61 *984:CLK *956:A1 0.00015815
62 *984:CLK *122:16 0.0010961
63 *984:CLK *122:77 0.000113027
64 *985:D *956:A1 6.32781e-05
65 *985:CLK *956:A1 9.95746e-05
66 *991:CLK *963:B 1.19584e-05
67 *991:CLK *122:108 0
68 *1002:I *965:B 0.000103788
69 *1003:I *956:A1 0
70 *1004:I *956:A1 0
71 *1004:I *122:10 0.000355286
72 *1017:I *122:16 0
73 *1017:I *122:25 0
74 *46:10 *122:33 9.2169e-05
75 *53:12 *122:10 0
76 *77:21 *951:B 0.00138671
77 *93:8 *122:121 0
78 *93:19 *949:A2 9.70289e-05
79 *94:8 *122:108 0.000239699
80 *94:8 *122:121 0.000194522
81 *96:8 *965:B 1.78817e-06
82 *96:23 *122:33 0.000441747
83 *104:12 *122:108 0
84 *104:35 *951:B 0
85 *107:16 *949:A2 1.43411e-05
86 *108:17 *949:A2 0.000341092
87 *114:12 *956:A1 9.76261e-05
88 *120:12 *963:B 0.00031698
89 *120:18 *963:B 0.000362253
90 *120:18 *122:108 4.07478e-05
91 *120:24 *122:108 0.000488468
92 *120:39 *122:108 0
*RES
1 *1004:Z *122:10 15.476 
2 *122:10 *122:16 6.552 
3 *122:16 *954:A1 4.5 
4 *122:16 *122:25 5.824 
5 *122:25 *122:31 8.452 
6 *122:31 *122:33 4.056 
7 *122:33 *963:B 14.616 
8 *122:33 *965:B 9.312 
9 *122:31 *951:B 20.336 
10 *122:25 *953:A1 5.332 
11 *122:10 *122:77 0.312 
12 *122:77 *956:A1 25.148 
13 *122:77 *955:A1 4.5 
14 *963:B *122:108 12.196 
15 *122:108 *961:B 5.02 
16 *122:108 *122:121 3.432 
17 *122:121 *949:A2 20.78 
18 *122:121 *950:A1 4.5 
*END

*D_NET *123 0.00168085
*CONN
*I *918:A1 I *D gf180mcu_fd_sc_mcu7t5v0__nand2_1
*I *1008:Z O *D gf180mcu_fd_sc_mcu7t5v0__buf_2
*CAP
1 *918:A1 0.000401431
2 *1008:Z 0.000401431
3 *921:A1 *918:A1 0.000192388
4 *922:B *918:A1 0.000122244
5 *1005:I *918:A1 9.41125e-05
6 *1009:I *918:A1 0
7 *47:34 *918:A1 0.000469241
*RES
1 *1008:Z *918:A1 12.744 
*END

*D_NET *124 0.00154679
*CONN
*I *922:A2 I *D gf180mcu_fd_sc_mcu7t5v0__oai21_1
*I *920:A1 I *D gf180mcu_fd_sc_mcu7t5v0__nand2_1
*I *1009:Z O *D gf180mcu_fd_sc_mcu7t5v0__buf_2
*CAP
1 *922:A2 0
2 *920:A1 7.58364e-05
3 *1009:Z 0.000241273
4 *124:12 0.000317109
5 *918:A2 *124:12 0.000303065
6 *921:A1 *920:A1 6.55615e-05
7 *921:A1 *124:12 0.000325566
8 *966:A2 *920:A1 0
9 *47:47 *920:A1 0.000107043
10 *47:47 *124:12 1.92034e-05
11 *47:51 *124:12 9.21299e-05
12 *62:8 *920:A1 0
*RES
1 *1009:Z *124:12 15.996 
2 *124:12 *920:A1 14.436 
3 *124:12 *922:A2 4.5 
*END

*D_NET *125 0.00162082
*CONN
*I *916:A1 I *D gf180mcu_fd_sc_mcu7t5v0__nand2_1
*I *1010:Z O *D gf180mcu_fd_sc_mcu7t5v0__buf_2
*CAP
1 *916:A1 0.000240545
2 *1010:Z 0.000240545
3 *917:A3 *916:A1 0.000115856
4 *923:A1 *916:A1 9.76253e-05
5 *968:A2 *916:A1 0.00057698
6 *1016:I *916:A1 0.000349268
*RES
1 *1010:Z *916:A1 21.224 
*END

*D_NET *126 0.00083657
*CONN
*I *919:A1 I *D gf180mcu_fd_sc_mcu7t5v0__nand2_1
*I *1011:Z O *D gf180mcu_fd_sc_mcu7t5v0__buf_2
*CAP
1 *919:A1 0.000212321
2 *1011:Z 0.000212321
3 *1005:I *919:A1 0.000346997
4 *47:32 *919:A1 6.49297e-05
5 *47:47 *919:A1 0
*RES
1 *1011:Z *919:A1 19.872 
*END

*D_NET *127 0.00202203
*CONN
*I *915:A1 I *D gf180mcu_fd_sc_mcu7t5v0__nand2_1
*I *1012:Z O *D gf180mcu_fd_sc_mcu7t5v0__buf_2
*CAP
1 *915:A1 0.000621069
2 *1012:Z 0.000621069
3 *915:A1 *914:A1 1.36318e-05
4 *917:A2 *915:A1 0.000219099
5 *917:A3 *915:A1 5.78698e-05
6 *917:A4 *915:A1 3.42651e-05
7 *1012:I *915:A1 0.000414278
8 *47:32 *915:A1 4.07478e-05
*RES
1 *1012:Z *915:A1 16.072 
*END

*D_NET *128 0.00138779
*CONN
*I *970:B2 I *D gf180mcu_fd_sc_mcu7t5v0__aoi22_1
*I *914:A2 I *D gf180mcu_fd_sc_mcu7t5v0__nor2_1
*I *1013:Z O *D gf180mcu_fd_sc_mcu7t5v0__buf_2
*CAP
1 *970:B2 3.86967e-05
2 *914:A2 0.000327682
3 *1013:Z 7.88005e-05
4 *128:6 0.00044518
5 *914:A2 *903:I 3.77948e-05
6 *914:A2 *914:A1 0.000223393
7 *970:B2 *914:A1 1.57479e-05
8 *970:B2 *972:B2 0
9 *128:6 *972:B2 0
10 *41:6 *914:A2 0.000169099
11 *41:6 *970:B2 5.13977e-05
*RES
1 *1013:Z *128:6 5.228 
2 *128:6 *914:A2 7.932 
3 *128:6 *970:B2 5.124 
*END

*D_NET *129 0.00242166
*CONN
*I *972:B2 I *D gf180mcu_fd_sc_mcu7t5v0__aoi22_1
*I *914:A1 I *D gf180mcu_fd_sc_mcu7t5v0__nor2_1
*I *1014:Z O *D gf180mcu_fd_sc_mcu7t5v0__buf_2
*CAP
1 *972:B2 0.000242881
2 *914:A1 0.000624114
3 *1014:Z 0
4 *129:4 0.000866995
5 *914:A2 *914:A1 0.000223393
6 *915:A1 *914:A1 1.36318e-05
7 *917:A2 *914:A1 6.91057e-05
8 *970:B2 *914:A1 1.57479e-05
9 *970:B2 *972:B2 0
10 *973:A1 *972:B2 0.000113027
11 *1007:I *972:B2 0
12 *1012:I *914:A1 2.73715e-06
13 *1013:I *914:A1 5.31237e-05
14 *1015:I *914:A1 1.33033e-05
15 *41:6 *914:A1 1.09486e-05
16 *41:8 *914:A1 2.38865e-05
17 *41:8 *972:B2 0.000148768
18 *128:6 *972:B2 0
*RES
1 *1014:Z *129:4 4.5 
2 *129:4 *914:A1 10.324 
3 *129:4 *972:B2 6.788 
*END

*D_NET *130 0.000924797
*CONN
*I *903:I I *D gf180mcu_fd_sc_mcu7t5v0__clkinv_1
*I *969:A1 I *D gf180mcu_fd_sc_mcu7t5v0__nor2_1
*I *1015:Z O *D gf180mcu_fd_sc_mcu7t5v0__buf_2
*CAP
1 *903:I 0.000293677
2 *969:A1 0
3 *1015:Z 0.000123405
4 *130:8 0.000417082
5 *914:A2 *903:I 3.77948e-05
6 *969:A2 *903:I 0
7 *971:A2 *903:I 5.28381e-05
8 *117:31 *903:I 0
*RES
1 *1015:Z *130:8 9.936 
2 *130:8 *969:A1 9 
3 *130:8 *903:I 11.288 
*END
