*SPEF "ieee 1481-1999"
*DESIGN "pixel_pwm"
*DATE "16:40:03 Saturday October 03, 2026"
*VENDOR "The OpenROAD Project"
*PROGRAM "OpenROAD"
*VERSION "dcf36133a369abc8f3c5e5738cd4d82e4903c0e0"
*DESIGN_FLOW "NAME_SCOPE LOCAL" "PIN_CAP NONE"
*DIVIDER /
*DELIMITER :
*BUS_DELIMITER []
*T_UNIT 1 NS
*C_UNIT 1 PF
*R_UNIT 1 OHM
*L_UNIT 1 HENRY

*NAME_MAP
*3 clk
*4 duty[0]
*5 duty[1]
*6 duty[2]
*7 duty[3]
*8 duty[4]
*9 duty[5]
*10 duty[6]
*11 duty[7]
*12 duty[8]
*13 enable
*14 pwm
*15 rst
*16 _000_
*17 _001_
*18 _002_
*19 _003_
*20 _004_
*21 _005_
*22 _006_
*23 _007_
*24 _008_
*25 _009_
*26 _010_
*27 _011_
*28 _012_
*29 _013_
*30 _014_
*31 _015_
*32 _016_
*33 _017_
*34 _018_
*35 _019_
*36 _020_
*37 _021_
*38 _022_
*39 _023_
*40 _024_
*41 _025_
*42 _026_
*43 _027_
*44 _028_
*45 _029_
*46 _030_
*47 _031_
*48 _032_
*49 _033_
*50 _034_
*51 _035_
*52 _036_
*53 _037_
*54 _038_
*55 _039_
*56 _040_
*57 _041_
*58 _042_
*59 _043_
*60 _044_
*61 _045_
*62 _046_
*63 _047_
*64 _048_
*65 _049_
*66 _050_
*67 _051_
*68 _052_
*69 _053_
*70 _054_
*71 _055_
*72 _056_
*73 _057_
*74 _058_
*75 _059_
*76 _060_
*77 _061_
*78 _062_
*79 _063_
*80 _064_
*81 _065_
*82 _066_
*83 _067_
*84 _068_
*85 _069_
*86 _070_
*87 _071_
*88 _072_
*89 _073_
*90 _074_
*91 _075_
*92 active_duty\[0\]
*93 active_duty\[1\]
*94 active_duty\[2\]
*95 active_duty\[3\]
*96 active_duty\[4\]
*97 active_duty\[5\]
*98 active_duty\[6\]
*99 active_duty\[7\]
*100 active_duty\[8\]
*101 active_enable
*102 clknet_0_clk
*103 clknet_2_0__leaf_clk
*104 clknet_2_1__leaf_clk
*105 clknet_2_2__leaf_clk
*106 clknet_2_3__leaf_clk
*107 counter\[0\]
*108 counter\[1\]
*109 counter\[2\]
*110 counter\[3\]
*111 counter\[4\]
*112 counter\[5\]
*113 counter\[6\]
*114 counter\[7\]
*115 net1
*116 net10
*117 net11
*118 net12
*119 net13
*120 net14
*121 net15
*122 net16
*123 net2
*124 net3
*125 net4
*126 net5
*127 net6
*128 net7
*129 net8
*130 net9
*131 FILLER_0_104
*132 FILLER_0_138
*133 FILLER_0_172
*134 FILLER_0_2
*135 FILLER_0_206
*136 FILLER_0_240
*137 FILLER_0_274
*138 FILLER_0_290
*139 FILLER_0_294
*140 FILLER_0_36
*141 FILLER_0_70
*142 FILLER_10_104
*143 FILLER_10_107
*144 FILLER_10_123
*145 FILLER_10_127
*146 FILLER_10_129
*147 FILLER_10_141
*148 FILLER_10_173
*149 FILLER_10_177
*150 FILLER_10_241
*151 FILLER_10_247
*152 FILLER_10_279
*153 FILLER_10_31
*154 FILLER_10_37
*155 FILLER_10_45
*156 FILLER_10_52
*157 FILLER_10_68
*158 FILLER_10_70
*159 FILLER_10_88
*160 FILLER_11_10
*161 FILLER_11_102
*162 FILLER_11_106
*163 FILLER_11_108
*164 FILLER_11_117
*165 FILLER_11_133
*166 FILLER_11_137
*167 FILLER_11_139
*168 FILLER_11_142
*169 FILLER_11_2
*170 FILLER_11_206
*171 FILLER_11_212
*172 FILLER_11_276
*173 FILLER_11_28
*174 FILLER_11_282
*175 FILLER_11_290
*176 FILLER_11_294
*177 FILLER_11_30
*178 FILLER_11_41
*179 FILLER_11_51
*180 FILLER_11_55
*181 FILLER_11_64
*182 FILLER_11_68
*183 FILLER_11_72
*184 FILLER_11_76
*185 FILLER_11_86
*186 FILLER_12_103
*187 FILLER_12_126
*188 FILLER_12_140
*189 FILLER_12_172
*190 FILLER_12_174
*191 FILLER_12_177
*192 FILLER_12_2
*193 FILLER_12_241
*194 FILLER_12_247
*195 FILLER_12_279
*196 FILLER_12_34
*197 FILLER_12_87
*198 FILLER_13_10
*199 FILLER_13_142
*200 FILLER_13_206
*201 FILLER_13_21
*202 FILLER_13_212
*203 FILLER_13_276
*204 FILLER_13_282
*205 FILLER_13_290
*206 FILLER_13_294
*207 FILLER_13_37
*208 FILLER_13_39
*209 FILLER_13_69
*210 FILLER_13_72
*211 FILLER_13_74
*212 FILLER_13_83
*213 FILLER_13_87
*214 FILLER_13_89
*215 FILLER_14_101
*216 FILLER_14_107
*217 FILLER_14_115
*218 FILLER_14_154
*219 FILLER_14_170
*220 FILLER_14_174
*221 FILLER_14_177
*222 FILLER_14_2
*223 FILLER_14_22
*224 FILLER_14_241
*225 FILLER_14_247
*226 FILLER_14_279
*227 FILLER_14_30
*228 FILLER_14_34
*229 FILLER_14_37
*230 FILLER_14_6
*231 FILLER_14_69
*232 FILLER_14_71
*233 FILLER_14_8
*234 FILLER_15_128
*235 FILLER_15_136
*236 FILLER_15_142
*237 FILLER_15_206
*238 FILLER_15_212
*239 FILLER_15_24
*240 FILLER_15_276
*241 FILLER_15_282
*242 FILLER_15_290
*243 FILLER_15_294
*244 FILLER_15_56
*245 FILLER_15_64
*246 FILLER_15_68
*247 FILLER_15_72
*248 FILLER_15_96
*249 FILLER_16_103
*250 FILLER_16_107
*251 FILLER_16_171
*252 FILLER_16_177
*253 FILLER_16_18
*254 FILLER_16_241
*255 FILLER_16_247
*256 FILLER_16_279
*257 FILLER_16_34
*258 FILLER_16_37
*259 FILLER_16_53
*260 FILLER_16_61
*261 FILLER_16_70
*262 FILLER_16_86
*263 FILLER_16_95
*264 FILLER_17_10
*265 FILLER_17_117
*266 FILLER_17_121
*267 FILLER_17_127
*268 FILLER_17_135
*269 FILLER_17_139
*270 FILLER_17_154
*271 FILLER_17_186
*272 FILLER_17_202
*273 FILLER_17_212
*274 FILLER_17_26
*275 FILLER_17_276
*276 FILLER_17_282
*277 FILLER_17_290
*278 FILLER_17_294
*279 FILLER_17_34
*280 FILLER_17_38
*281 FILLER_17_40
*282 FILLER_17_72
*283 FILLER_17_86
*284 FILLER_17_88
*285 FILLER_17_99
*286 FILLER_18_122
*287 FILLER_18_153
*288 FILLER_18_169
*289 FILLER_18_173
*290 FILLER_18_177
*291 FILLER_18_20
*292 FILLER_18_24
*293 FILLER_18_241
*294 FILLER_18_247
*295 FILLER_18_26
*296 FILLER_18_279
*297 FILLER_18_37
*298 FILLER_18_45
*299 FILLER_19_104
*300 FILLER_19_112
*301 FILLER_19_116
*302 FILLER_19_118
*303 FILLER_19_123
*304 FILLER_19_139
*305 FILLER_19_142
*306 FILLER_19_2
*307 FILLER_19_206
*308 FILLER_19_212
*309 FILLER_19_276
*310 FILLER_19_282
*311 FILLER_19_290
*312 FILLER_19_294
*313 FILLER_19_46
*314 FILLER_19_62
*315 FILLER_19_72
*316 FILLER_19_74
*317 FILLER_1_136
*318 FILLER_1_142
*319 FILLER_1_2
*320 FILLER_1_206
*321 FILLER_1_212
*322 FILLER_1_276
*323 FILLER_1_282
*324 FILLER_1_290
*325 FILLER_1_294
*326 FILLER_1_66
*327 FILLER_1_72
*328 FILLER_20_10
*329 FILLER_20_101
*330 FILLER_20_107
*331 FILLER_20_139
*332 FILLER_20_141
*333 FILLER_20_147
*334 FILLER_20_163
*335 FILLER_20_171
*336 FILLER_20_177
*337 FILLER_20_18
*338 FILLER_20_22
*339 FILLER_20_24
*340 FILLER_20_241
*341 FILLER_20_247
*342 FILLER_20_279
*343 FILLER_20_32
*344 FILLER_20_34
*345 FILLER_20_37
*346 FILLER_21_106
*347 FILLER_21_114
*348 FILLER_21_118
*349 FILLER_21_124
*350 FILLER_21_154
*351 FILLER_21_186
*352 FILLER_21_20
*353 FILLER_21_202
*354 FILLER_21_212
*355 FILLER_21_276
*356 FILLER_21_282
*357 FILLER_21_290
*358 FILLER_21_294
*359 FILLER_21_36
*360 FILLER_21_40
*361 FILLER_21_42
*362 FILLER_21_48
*363 FILLER_21_52
*364 FILLER_21_61
*365 FILLER_21_68
*366 FILLER_21_72
*367 FILLER_21_88
*368 FILLER_21_96
*369 FILLER_22_113
*370 FILLER_22_146
*371 FILLER_22_16
*372 FILLER_22_162
*373 FILLER_22_170
*374 FILLER_22_174
*375 FILLER_22_177
*376 FILLER_22_20
*377 FILLER_22_241
*378 FILLER_22_247
*379 FILLER_22_27
*380 FILLER_22_279
*381 FILLER_22_37
*382 FILLER_22_45
*383 FILLER_22_47
*384 FILLER_22_77
*385 FILLER_22_93
*386 FILLER_22_95
*387 FILLER_23_10
*388 FILLER_23_149
*389 FILLER_23_181
*390 FILLER_23_197
*391 FILLER_23_205
*392 FILLER_23_209
*393 FILLER_23_212
*394 FILLER_23_276
*395 FILLER_23_282
*396 FILLER_23_290
*397 FILLER_23_294
*398 FILLER_23_49
*399 FILLER_23_65
*400 FILLER_24_10
*401 FILLER_24_103
*402 FILLER_24_107
*403 FILLER_24_119
*404 FILLER_24_156
*405 FILLER_24_172
*406 FILLER_24_174
*407 FILLER_24_177
*408 FILLER_24_241
*409 FILLER_24_247
*410 FILLER_24_26
*411 FILLER_24_279
*412 FILLER_24_34
*413 FILLER_24_37
*414 FILLER_24_39
*415 FILLER_24_90
*416 FILLER_24_92
*417 FILLER_25_101
*418 FILLER_25_130
*419 FILLER_25_138
*420 FILLER_25_142
*421 FILLER_25_19
*422 FILLER_25_206
*423 FILLER_25_212
*424 FILLER_25_276
*425 FILLER_25_282
*426 FILLER_25_290
*427 FILLER_25_294
*428 FILLER_25_51
*429 FILLER_25_67
*430 FILLER_25_69
*431 FILLER_25_72
*432 FILLER_25_88
*433 FILLER_25_95
*434 FILLER_26_107
*435 FILLER_26_115
*436 FILLER_26_146
*437 FILLER_26_16
*438 FILLER_26_162
*439 FILLER_26_170
*440 FILLER_26_174
*441 FILLER_26_177
*442 FILLER_26_2
*443 FILLER_26_241
*444 FILLER_26_247
*445 FILLER_26_279
*446 FILLER_26_32
*447 FILLER_26_34
*448 FILLER_26_43
*449 FILLER_26_51
*450 FILLER_26_61
*451 FILLER_26_71
*452 FILLER_26_78
*453 FILLER_26_82
*454 FILLER_26_84
*455 FILLER_27_101
*456 FILLER_27_133
*457 FILLER_27_137
*458 FILLER_27_139
*459 FILLER_27_142
*460 FILLER_27_2
*461 FILLER_27_206
*462 FILLER_27_212
*463 FILLER_27_276
*464 FILLER_27_282
*465 FILLER_27_290
*466 FILLER_27_294
*467 FILLER_27_32
*468 FILLER_27_62
*469 FILLER_28_102
*470 FILLER_28_104
*471 FILLER_28_107
*472 FILLER_28_171
*473 FILLER_28_177
*474 FILLER_28_2
*475 FILLER_28_241
*476 FILLER_28_247
*477 FILLER_28_279
*478 FILLER_28_34
*479 FILLER_28_37
*480 FILLER_28_53
*481 FILLER_28_62
*482 FILLER_28_94
*483 FILLER_29_136
*484 FILLER_29_142
*485 FILLER_29_2
*486 FILLER_29_206
*487 FILLER_29_212
*488 FILLER_29_276
*489 FILLER_29_282
*490 FILLER_29_290
*491 FILLER_29_294
*492 FILLER_29_66
*493 FILLER_29_72
*494 FILLER_2_101
*495 FILLER_2_107
*496 FILLER_2_171
*497 FILLER_2_177
*498 FILLER_2_2
*499 FILLER_2_241
*500 FILLER_2_247
*501 FILLER_2_279
*502 FILLER_2_34
*503 FILLER_2_37
*504 FILLER_30_101
*505 FILLER_30_107
*506 FILLER_30_171
*507 FILLER_30_177
*508 FILLER_30_2
*509 FILLER_30_241
*510 FILLER_30_247
*511 FILLER_30_279
*512 FILLER_30_34
*513 FILLER_30_37
*514 FILLER_31_136
*515 FILLER_31_142
*516 FILLER_31_2
*517 FILLER_31_206
*518 FILLER_31_212
*519 FILLER_31_276
*520 FILLER_31_282
*521 FILLER_31_290
*522 FILLER_31_294
*523 FILLER_31_66
*524 FILLER_31_72
*525 FILLER_32_101
*526 FILLER_32_107
*527 FILLER_32_171
*528 FILLER_32_177
*529 FILLER_32_2
*530 FILLER_32_241
*531 FILLER_32_247
*532 FILLER_32_279
*533 FILLER_32_34
*534 FILLER_32_37
*535 FILLER_33_136
*536 FILLER_33_142
*537 FILLER_33_2
*538 FILLER_33_206
*539 FILLER_33_212
*540 FILLER_33_276
*541 FILLER_33_282
*542 FILLER_33_290
*543 FILLER_33_294
*544 FILLER_33_66
*545 FILLER_33_72
*546 FILLER_34_101
*547 FILLER_34_107
*548 FILLER_34_171
*549 FILLER_34_177
*550 FILLER_34_2
*551 FILLER_34_241
*552 FILLER_34_247
*553 FILLER_34_279
*554 FILLER_34_34
*555 FILLER_34_37
*556 FILLER_35_136
*557 FILLER_35_142
*558 FILLER_35_2
*559 FILLER_35_206
*560 FILLER_35_212
*561 FILLER_35_276
*562 FILLER_35_282
*563 FILLER_35_290
*564 FILLER_35_294
*565 FILLER_35_66
*566 FILLER_35_72
*567 FILLER_36_104
*568 FILLER_36_138
*569 FILLER_36_172
*570 FILLER_36_2
*571 FILLER_36_206
*572 FILLER_36_240
*573 FILLER_36_274
*574 FILLER_36_290
*575 FILLER_36_294
*576 FILLER_36_36
*577 FILLER_36_70
*578 FILLER_3_136
*579 FILLER_3_142
*580 FILLER_3_2
*581 FILLER_3_206
*582 FILLER_3_212
*583 FILLER_3_276
*584 FILLER_3_282
*585 FILLER_3_290
*586 FILLER_3_294
*587 FILLER_3_66
*588 FILLER_3_72
*589 FILLER_4_101
*590 FILLER_4_107
*591 FILLER_4_171
*592 FILLER_4_177
*593 FILLER_4_2
*594 FILLER_4_241
*595 FILLER_4_247
*596 FILLER_4_279
*597 FILLER_4_34
*598 FILLER_4_37
*599 FILLER_5_136
*600 FILLER_5_142
*601 FILLER_5_2
*602 FILLER_5_206
*603 FILLER_5_212
*604 FILLER_5_276
*605 FILLER_5_282
*606 FILLER_5_290
*607 FILLER_5_294
*608 FILLER_5_66
*609 FILLER_5_72
*610 FILLER_6_101
*611 FILLER_6_107
*612 FILLER_6_171
*613 FILLER_6_177
*614 FILLER_6_2
*615 FILLER_6_241
*616 FILLER_6_247
*617 FILLER_6_279
*618 FILLER_6_34
*619 FILLER_6_37
*620 FILLER_7_116
*621 FILLER_7_132
*622 FILLER_7_142
*623 FILLER_7_2
*624 FILLER_7_206
*625 FILLER_7_212
*626 FILLER_7_276
*627 FILLER_7_282
*628 FILLER_7_290
*629 FILLER_7_294
*630 FILLER_7_66
*631 FILLER_7_72
*632 FILLER_7_80
*633 FILLER_7_84
*634 FILLER_7_86
*635 FILLER_8_104
*636 FILLER_8_107
*637 FILLER_8_111
*638 FILLER_8_142
*639 FILLER_8_174
*640 FILLER_8_177
*641 FILLER_8_2
*642 FILLER_8_241
*643 FILLER_8_247
*644 FILLER_8_279
*645 FILLER_8_34
*646 FILLER_8_37
*647 FILLER_8_53
*648 FILLER_8_84
*649 FILLER_8_88
*650 FILLER_8_90
*651 FILLER_8_96
*652 FILLER_9_107
*653 FILLER_9_109
*654 FILLER_9_136
*655 FILLER_9_142
*656 FILLER_9_18
*657 FILLER_9_2
*658 FILLER_9_206
*659 FILLER_9_212
*660 FILLER_9_26
*661 FILLER_9_276
*662 FILLER_9_282
*663 FILLER_9_290
*664 FILLER_9_294
*665 FILLER_9_30
*666 FILLER_9_60
*667 FILLER_9_64
*668 FILLER_9_72
*669 FILLER_9_76
*670 FILLER_9_91
*671 PHY_EDGE_ROW_0_Left_37
*672 PHY_EDGE_ROW_0_Right_0
*673 PHY_EDGE_ROW_10_Left_47
*674 PHY_EDGE_ROW_10_Right_10
*675 PHY_EDGE_ROW_11_Left_48
*676 PHY_EDGE_ROW_11_Right_11
*677 PHY_EDGE_ROW_12_Left_49
*678 PHY_EDGE_ROW_12_Right_12
*679 PHY_EDGE_ROW_13_Left_50
*680 PHY_EDGE_ROW_13_Right_13
*681 PHY_EDGE_ROW_14_Left_51
*682 PHY_EDGE_ROW_14_Right_14
*683 PHY_EDGE_ROW_15_Left_52
*684 PHY_EDGE_ROW_15_Right_15
*685 PHY_EDGE_ROW_16_Left_53
*686 PHY_EDGE_ROW_16_Right_16
*687 PHY_EDGE_ROW_17_Left_54
*688 PHY_EDGE_ROW_17_Right_17
*689 PHY_EDGE_ROW_18_Left_55
*690 PHY_EDGE_ROW_18_Right_18
*691 PHY_EDGE_ROW_19_Left_56
*692 PHY_EDGE_ROW_19_Right_19
*693 PHY_EDGE_ROW_1_Left_38
*694 PHY_EDGE_ROW_1_Right_1
*695 PHY_EDGE_ROW_20_Left_57
*696 PHY_EDGE_ROW_20_Right_20
*697 PHY_EDGE_ROW_21_Left_58
*698 PHY_EDGE_ROW_21_Right_21
*699 PHY_EDGE_ROW_22_Left_59
*700 PHY_EDGE_ROW_22_Right_22
*701 PHY_EDGE_ROW_23_Left_60
*702 PHY_EDGE_ROW_23_Right_23
*703 PHY_EDGE_ROW_24_Left_61
*704 PHY_EDGE_ROW_24_Right_24
*705 PHY_EDGE_ROW_25_Left_62
*706 PHY_EDGE_ROW_25_Right_25
*707 PHY_EDGE_ROW_26_Left_63
*708 PHY_EDGE_ROW_26_Right_26
*709 PHY_EDGE_ROW_27_Left_64
*710 PHY_EDGE_ROW_27_Right_27
*711 PHY_EDGE_ROW_28_Left_65
*712 PHY_EDGE_ROW_28_Right_28
*713 PHY_EDGE_ROW_29_Left_66
*714 PHY_EDGE_ROW_29_Right_29
*715 PHY_EDGE_ROW_2_Left_39
*716 PHY_EDGE_ROW_2_Right_2
*717 PHY_EDGE_ROW_30_Left_67
*718 PHY_EDGE_ROW_30_Right_30
*719 PHY_EDGE_ROW_31_Left_68
*720 PHY_EDGE_ROW_31_Right_31
*721 PHY_EDGE_ROW_32_Left_69
*722 PHY_EDGE_ROW_32_Right_32
*723 PHY_EDGE_ROW_33_Left_70
*724 PHY_EDGE_ROW_33_Right_33
*725 PHY_EDGE_ROW_34_Left_71
*726 PHY_EDGE_ROW_34_Right_34
*727 PHY_EDGE_ROW_35_Left_72
*728 PHY_EDGE_ROW_35_Right_35
*729 PHY_EDGE_ROW_36_Left_73
*730 PHY_EDGE_ROW_36_Right_36
*731 PHY_EDGE_ROW_3_Left_40
*732 PHY_EDGE_ROW_3_Right_3
*733 PHY_EDGE_ROW_4_Left_41
*734 PHY_EDGE_ROW_4_Right_4
*735 PHY_EDGE_ROW_5_Left_42
*736 PHY_EDGE_ROW_5_Right_5
*737 PHY_EDGE_ROW_6_Left_43
*738 PHY_EDGE_ROW_6_Right_6
*739 PHY_EDGE_ROW_7_Left_44
*740 PHY_EDGE_ROW_7_Right_7
*741 PHY_EDGE_ROW_8_Left_45
*742 PHY_EDGE_ROW_8_Right_8
*743 PHY_EDGE_ROW_9_Left_46
*744 PHY_EDGE_ROW_9_Right_9
*745 TAP_TAPCELL_ROW_0_74
*746 TAP_TAPCELL_ROW_0_75
*747 TAP_TAPCELL_ROW_0_76
*748 TAP_TAPCELL_ROW_0_77
*749 TAP_TAPCELL_ROW_0_78
*750 TAP_TAPCELL_ROW_0_79
*751 TAP_TAPCELL_ROW_0_80
*752 TAP_TAPCELL_ROW_0_81
*753 TAP_TAPCELL_ROW_10_118
*754 TAP_TAPCELL_ROW_10_119
*755 TAP_TAPCELL_ROW_10_120
*756 TAP_TAPCELL_ROW_10_121
*757 TAP_TAPCELL_ROW_11_122
*758 TAP_TAPCELL_ROW_11_123
*759 TAP_TAPCELL_ROW_11_124
*760 TAP_TAPCELL_ROW_11_125
*761 TAP_TAPCELL_ROW_12_126
*762 TAP_TAPCELL_ROW_12_127
*763 TAP_TAPCELL_ROW_12_128
*764 TAP_TAPCELL_ROW_12_129
*765 TAP_TAPCELL_ROW_13_130
*766 TAP_TAPCELL_ROW_13_131
*767 TAP_TAPCELL_ROW_13_132
*768 TAP_TAPCELL_ROW_13_133
*769 TAP_TAPCELL_ROW_14_134
*770 TAP_TAPCELL_ROW_14_135
*771 TAP_TAPCELL_ROW_14_136
*772 TAP_TAPCELL_ROW_14_137
*773 TAP_TAPCELL_ROW_15_138
*774 TAP_TAPCELL_ROW_15_139
*775 TAP_TAPCELL_ROW_15_140
*776 TAP_TAPCELL_ROW_15_141
*777 TAP_TAPCELL_ROW_16_142
*778 TAP_TAPCELL_ROW_16_143
*779 TAP_TAPCELL_ROW_16_144
*780 TAP_TAPCELL_ROW_16_145
*781 TAP_TAPCELL_ROW_17_146
*782 TAP_TAPCELL_ROW_17_147
*783 TAP_TAPCELL_ROW_17_148
*784 TAP_TAPCELL_ROW_17_149
*785 TAP_TAPCELL_ROW_18_150
*786 TAP_TAPCELL_ROW_18_151
*787 TAP_TAPCELL_ROW_18_152
*788 TAP_TAPCELL_ROW_18_153
*789 TAP_TAPCELL_ROW_19_154
*790 TAP_TAPCELL_ROW_19_155
*791 TAP_TAPCELL_ROW_19_156
*792 TAP_TAPCELL_ROW_19_157
*793 TAP_TAPCELL_ROW_1_82
*794 TAP_TAPCELL_ROW_1_83
*795 TAP_TAPCELL_ROW_1_84
*796 TAP_TAPCELL_ROW_1_85
*797 TAP_TAPCELL_ROW_20_158
*798 TAP_TAPCELL_ROW_20_159
*799 TAP_TAPCELL_ROW_20_160
*800 TAP_TAPCELL_ROW_20_161
*801 TAP_TAPCELL_ROW_21_162
*802 TAP_TAPCELL_ROW_21_163
*803 TAP_TAPCELL_ROW_21_164
*804 TAP_TAPCELL_ROW_21_165
*805 TAP_TAPCELL_ROW_22_166
*806 TAP_TAPCELL_ROW_22_167
*807 TAP_TAPCELL_ROW_22_168
*808 TAP_TAPCELL_ROW_22_169
*809 TAP_TAPCELL_ROW_23_170
*810 TAP_TAPCELL_ROW_23_171
*811 TAP_TAPCELL_ROW_23_172
*812 TAP_TAPCELL_ROW_23_173
*813 TAP_TAPCELL_ROW_24_174
*814 TAP_TAPCELL_ROW_24_175
*815 TAP_TAPCELL_ROW_24_176
*816 TAP_TAPCELL_ROW_24_177
*817 TAP_TAPCELL_ROW_25_178
*818 TAP_TAPCELL_ROW_25_179
*819 TAP_TAPCELL_ROW_25_180
*820 TAP_TAPCELL_ROW_25_181
*821 TAP_TAPCELL_ROW_26_182
*822 TAP_TAPCELL_ROW_26_183
*823 TAP_TAPCELL_ROW_26_184
*824 TAP_TAPCELL_ROW_26_185
*825 TAP_TAPCELL_ROW_27_186
*826 TAP_TAPCELL_ROW_27_187
*827 TAP_TAPCELL_ROW_27_188
*828 TAP_TAPCELL_ROW_27_189
*829 TAP_TAPCELL_ROW_28_190
*830 TAP_TAPCELL_ROW_28_191
*831 TAP_TAPCELL_ROW_28_192
*832 TAP_TAPCELL_ROW_28_193
*833 TAP_TAPCELL_ROW_29_194
*834 TAP_TAPCELL_ROW_29_195
*835 TAP_TAPCELL_ROW_29_196
*836 TAP_TAPCELL_ROW_29_197
*837 TAP_TAPCELL_ROW_2_86
*838 TAP_TAPCELL_ROW_2_87
*839 TAP_TAPCELL_ROW_2_88
*840 TAP_TAPCELL_ROW_2_89
*841 TAP_TAPCELL_ROW_30_198
*842 TAP_TAPCELL_ROW_30_199
*843 TAP_TAPCELL_ROW_30_200
*844 TAP_TAPCELL_ROW_30_201
*845 TAP_TAPCELL_ROW_31_202
*846 TAP_TAPCELL_ROW_31_203
*847 TAP_TAPCELL_ROW_31_204
*848 TAP_TAPCELL_ROW_31_205
*849 TAP_TAPCELL_ROW_32_206
*850 TAP_TAPCELL_ROW_32_207
*851 TAP_TAPCELL_ROW_32_208
*852 TAP_TAPCELL_ROW_32_209
*853 TAP_TAPCELL_ROW_33_210
*854 TAP_TAPCELL_ROW_33_211
*855 TAP_TAPCELL_ROW_33_212
*856 TAP_TAPCELL_ROW_33_213
*857 TAP_TAPCELL_ROW_34_214
*858 TAP_TAPCELL_ROW_34_215
*859 TAP_TAPCELL_ROW_34_216
*860 TAP_TAPCELL_ROW_34_217
*861 TAP_TAPCELL_ROW_35_218
*862 TAP_TAPCELL_ROW_35_219
*863 TAP_TAPCELL_ROW_35_220
*864 TAP_TAPCELL_ROW_35_221
*865 TAP_TAPCELL_ROW_36_222
*866 TAP_TAPCELL_ROW_36_223
*867 TAP_TAPCELL_ROW_36_224
*868 TAP_TAPCELL_ROW_36_225
*869 TAP_TAPCELL_ROW_36_226
*870 TAP_TAPCELL_ROW_36_227
*871 TAP_TAPCELL_ROW_36_228
*872 TAP_TAPCELL_ROW_36_229
*873 TAP_TAPCELL_ROW_3_90
*874 TAP_TAPCELL_ROW_3_91
*875 TAP_TAPCELL_ROW_3_92
*876 TAP_TAPCELL_ROW_3_93
*877 TAP_TAPCELL_ROW_4_94
*878 TAP_TAPCELL_ROW_4_95
*879 TAP_TAPCELL_ROW_4_96
*880 TAP_TAPCELL_ROW_4_97
*881 TAP_TAPCELL_ROW_5_100
*882 TAP_TAPCELL_ROW_5_101
*883 TAP_TAPCELL_ROW_5_98
*884 TAP_TAPCELL_ROW_5_99
*885 TAP_TAPCELL_ROW_6_102
*886 TAP_TAPCELL_ROW_6_103
*887 TAP_TAPCELL_ROW_6_104
*888 TAP_TAPCELL_ROW_6_105
*889 TAP_TAPCELL_ROW_7_106
*890 TAP_TAPCELL_ROW_7_107
*891 TAP_TAPCELL_ROW_7_108
*892 TAP_TAPCELL_ROW_7_109
*893 TAP_TAPCELL_ROW_8_110
*894 TAP_TAPCELL_ROW_8_111
*895 TAP_TAPCELL_ROW_8_112
*896 TAP_TAPCELL_ROW_8_113
*897 TAP_TAPCELL_ROW_9_114
*898 TAP_TAPCELL_ROW_9_115
*899 TAP_TAPCELL_ROW_9_116
*900 TAP_TAPCELL_ROW_9_117
*901 _076_
*902 _077_
*903 _078_
*904 _079_
*905 _080_
*906 _081_
*907 _082_
*908 _083_
*909 _084_
*910 _085_
*911 _086_
*912 _087_
*913 _088_
*914 _089_
*915 _090_
*916 _091_
*917 _092_
*918 _093_
*919 _094_
*920 _095_
*921 _096_
*922 _097_
*923 _098_
*924 _099_
*925 _100_
*926 _101_
*927 _102_
*928 _103_
*929 _104_
*930 _105_
*931 _106_
*932 _107_
*933 _108_
*934 _109_
*935 _110_
*936 _111_
*937 _112_
*938 _113_
*939 _114_
*940 _115_
*941 _116_
*942 _117_
*943 _118_
*944 _119_
*945 _120_
*946 _121_
*947 _122_
*948 _123_
*949 _124_
*950 _125_
*951 _126_
*952 _127_
*953 _128_
*954 _129_
*955 _130_
*956 _131_
*957 _132_
*958 _133_
*959 _134_
*960 _135_
*961 _136_
*962 _137_
*963 _138_
*964 _139_
*965 _140_
*966 _141_
*967 _142_
*968 _143_
*969 _144_
*970 _145_
*971 _146_
*972 _147_
*973 _148_
*974 _149_
*975 _150_
*976 _151_
*977 _152_
*978 _153_
*979 _154_
*980 _155_
*981 _156_
*982 _157_
*983 _158_
*984 _159_
*985 _160_
*986 _161_
*987 _162_
*988 _163_
*989 _164_
*990 _165_
*991 _166_
*992 _167_
*993 _168_
*994 _169_
*995 _170_
*996 clkbuf_0_clk
*997 clkbuf_2_0__f_clk
*998 clkbuf_2_1__f_clk
*999 clkbuf_2_2__f_clk
*1000 clkbuf_2_3__f_clk
*1001 clkload0
*1002 fanout14
*1003 fanout15
*1004 fanout16
*1005 input1
*1006 input10
*1007 input11
*1008 input2
*1009 input3
*1010 input4
*1011 input5
*1012 input6
*1013 input7
*1014 input8
*1015 input9
*1016 output12
*1017 wire13

*PORTS
clk I
duty[0] I
duty[1] I
duty[2] I
duty[3] I
duty[4] I
duty[5] I
duty[6] I
duty[7] I
duty[8] I
enable I
pwm O
rst I

*D_NET *3 0.00796382
*CONN
*P clk I
*I *996:I I *D gf180mcu_fd_sc_mcu7t5v0__clkbuf_16
*CAP
1 clk 0.00252303
2 *996:I 0.000143165
3 *3:10 0.0026662
4 *3:10 *925:A2 0.000241528
5 *3:10 *945:A1 5.06031e-06
6 *3:10 *945:B 6.53306e-05
7 *3:10 *946:I 7.20821e-05
8 *3:10 *974:A1 6.3006e-05
9 *3:10 *974:B 6.02483e-06
10 *3:10 *975:A1 0.000475219
11 *3:10 *975:A2 0.000486092
12 *3:10 *993:CLK 0.00014185
13 *3:10 *995:D 4.18699e-05
14 *3:10 *99:27 0.000937637
15 *3:10 *100:10 9.57249e-05
16 *3:10 *117:8 0
17 *3:10 *117:93 0
18 *3:10 *121:12 0
*RES
1 clk *3:10 27.315 
2 *3:10 *996:I 5.31 
*END

*D_NET *4 0.00236622
*CONN
*P duty[0] I
*I *1005:I I *D gf180mcu_fd_sc_mcu7t5v0__buf_2
*CAP
1 duty[0] 0.000650638
2 *1005:I 0.000650638
3 *1005:I *918:A1 9.07783e-05
4 *1005:I *919:A1 0.000302466
5 *1005:I *1008:I 3.08015e-05
6 *1005:I *1009:I 0.000535665
7 *1005:I *1011:I 1.31385e-05
8 *1005:I *47:32 7.69771e-05
9 *1005:I *47:34 1.51153e-05
*RES
1 duty[0] *1005:I 16.245 
*END

*D_NET *5 0.00103527
*CONN
*P duty[1] I
*I *1008:I I *D gf180mcu_fd_sc_mcu7t5v0__buf_2
*CAP
1 duty[1] 0.000204862
2 *1008:I 0.000204862
3 *1008:I *1009:I 0.000503421
4 *1008:I *1011:I 9.1325e-05
5 *1005:I *1008:I 3.08015e-05
*RES
1 duty[1] *1008:I 12.195 
*END

*D_NET *6 0.00160401
*CONN
*P duty[2] I
*I *1009:I I *D gf180mcu_fd_sc_mcu7t5v0__buf_2
*CAP
1 duty[2] 0.000282464
2 *1009:I 0.000282464
3 *1009:I *918:A1 0
4 *1005:I *1009:I 0.000535665
5 *1008:I *1009:I 0.000503421
*RES
1 duty[2] *1009:I 13.275 
*END

*D_NET *7 0.00087182
*CONN
*P duty[3] I
*I *1010:I I *D gf180mcu_fd_sc_mcu7t5v0__buf_2
*CAP
1 duty[3] 0.0001842
2 *1010:I 0.0001842
3 *1010:I pwm 0.000503421
4 *1010:I *1012:I 0
*RES
1 duty[3] *1010:I 11.745 
*END

*D_NET *8 0.000819192
*CONN
*P duty[4] I
*I *1011:I I *D gf180mcu_fd_sc_mcu7t5v0__buf_2
*CAP
1 duty[4] 0.000357364
2 *1011:I 0.000357364
3 *1005:I *1011:I 1.31385e-05
4 *1008:I *1011:I 9.1325e-05
*RES
1 duty[4] *1011:I 12.015 
*END

*D_NET *9 0.00200135
*CONN
*P duty[5] I
*I *1012:I I *D gf180mcu_fd_sc_mcu7t5v0__buf_2
*CAP
1 duty[5] 0.00043049
2 *1012:I 0.00043049
3 *1012:I *914:A1 2.65444e-06
4 *1012:I *915:A1 0.000391985
5 *1012:I *1006:I 0.000745733
6 *1010:I *1012:I 0
*RES
1 duty[5] *1012:I 14.535 
*END

*D_NET *10 0.00101357
*CONN
*P duty[6] I
*I *1013:I I *D gf180mcu_fd_sc_mcu7t5v0__buf_2
*CAP
1 duty[6] 0.000437459
2 *1013:I 0.000437459
3 *1013:I *914:A1 5.20027e-05
4 *1013:I *1014:I 0
5 *1013:I *1015:I 8.665e-05
*RES
1 duty[6] *1013:I 12.555 
*END

*D_NET *11 0.000740901
*CONN
*P duty[7] I
*I *1014:I I *D gf180mcu_fd_sc_mcu7t5v0__buf_2
*CAP
1 duty[7] 0.000241889
2 *1014:I 0.000241889
3 *1014:I *1007:I 0.000257123
4 *1013:I *1014:I 0
*RES
1 duty[7] *1014:I 11.745 
*END

*D_NET *12 0.000838821
*CONN
*P duty[8] I
*I *1015:I I *D gf180mcu_fd_sc_mcu7t5v0__buf_2
*CAP
1 duty[8] 0.000369516
2 *1015:I 0.000369516
3 *1015:I *914:A1 1.31385e-05
4 *1013:I *1015:I 8.665e-05
*RES
1 duty[8] *1015:I 12.015 
*END

*D_NET *13 0.00124103
*CONN
*P enable I
*I *1006:I I *D gf180mcu_fd_sc_mcu7t5v0__buf_2
*CAP
1 enable 0.000247647
2 *1006:I 0.000247647
3 *1012:I *1006:I 0.000745733
*RES
1 enable *1006:I 12.375 
*END

*D_NET *14 0.00113512
*CONN
*P pwm O
*I *1016:Z O *D gf180mcu_fd_sc_mcu7t5v0__buf_2
*CAP
1 pwm 0.000315849
2 *1016:Z 0.000315849
3 pwm *47:32 0
4 *1010:I pwm 0.000503421
*RES
1 *1016:Z pwm 12.375 
*END

*D_NET *15 0.00101671
*CONN
*P rst I
*I *1007:I I *D gf180mcu_fd_sc_mcu7t5v0__buf_2
*CAP
1 rst 0.000379796
2 *1007:I 0.000379796
3 *1007:I *972:B2 0
4 *1014:I *1007:I 0.000257123
*RES
1 rst *1007:I 12.555 
*END

*D_NET *16 0.000852707
*CONN
*I *977:D I *D gf180mcu_fd_sc_mcu7t5v0__dffq_1
*I *948:ZN O *D gf180mcu_fd_sc_mcu7t5v0__aoi21_1
*CAP
1 *977:D 0.000276479
2 *948:ZN 0.000276479
3 *977:D *948:A1 2.32821e-05
4 *977:D *948:A2 0.000223284
5 *977:D *964:A2 5.31837e-05
*RES
1 *948:ZN *977:D 19.98 
*END

*D_NET *17 0.000270318
*CONN
*I *978:D I *D gf180mcu_fd_sc_mcu7t5v0__dffq_1
*I *949:ZN O *D gf180mcu_fd_sc_mcu7t5v0__nand2_1
*CAP
1 *978:D 0.000135159
2 *949:ZN 0.000135159
*RES
1 *949:ZN *978:D 9.81 
*END

*D_NET *18 0.000479389
*CONN
*I *979:D I *D gf180mcu_fd_sc_mcu7t5v0__dffq_1
*I *950:ZN O *D gf180mcu_fd_sc_mcu7t5v0__nand2_1
*CAP
1 *979:D 0.000230733
2 *950:ZN 0.000230733
3 *979:D *979:CLK 0
4 *979:D *93:8 1.79237e-05
*RES
1 *950:ZN *979:D 10.62 
*END

*D_NET *19 0.00106015
*CONN
*I *980:D I *D gf180mcu_fd_sc_mcu7t5v0__dffq_1
*I *951:ZN O *D gf180mcu_fd_sc_mcu7t5v0__oai21_1
*CAP
1 *980:D 0.000168654
2 *951:ZN 0.000168654
3 *980:D *926:A1 0.000218465
4 *980:D *104:35 5.6941e-05
5 *980:D *107:47 0.000107785
6 *980:D *108:17 0.000244819
7 *980:D *108:28 9.4836e-05
*RES
1 *951:ZN *980:D 20.16 
*END

*D_NET *20 0.000551836
*CONN
*I *981:D I *D gf180mcu_fd_sc_mcu7t5v0__dffq_1
*I *952:Z O *D gf180mcu_fd_sc_mcu7t5v0__or2_1
*CAP
1 *981:D 0.000275918
2 *952:Z 0.000275918
*RES
1 *952:Z *981:D 11.16 
*END

*D_NET *21 0.000602017
*CONN
*I *982:D I *D gf180mcu_fd_sc_mcu7t5v0__dffq_1
*I *953:ZN O *D gf180mcu_fd_sc_mcu7t5v0__nand2_1
*CAP
1 *982:D 0.000278668
2 *953:ZN 0.000278668
3 *982:D *953:A1 1.62696e-05
4 *982:D *122:25 2.84111e-05
*RES
1 *953:ZN *982:D 11.07 
*END

*D_NET *22 0.000405886
*CONN
*I *983:D I *D gf180mcu_fd_sc_mcu7t5v0__dffq_1
*I *954:ZN O *D gf180mcu_fd_sc_mcu7t5v0__nand2_1
*CAP
1 *983:D 0.000136215
2 *954:ZN 0.000136215
3 *983:D *982:CLK 7.84068e-05
4 *983:D *122:16 5.50498e-05
*RES
1 *954:ZN *983:D 10.26 
*END

*D_NET *23 0.000658762
*CONN
*I *984:D I *D gf180mcu_fd_sc_mcu7t5v0__dffq_1
*I *955:ZN O *D gf180mcu_fd_sc_mcu7t5v0__nand2_1
*CAP
1 *984:D 0.000178148
2 *955:ZN 0.000178148
3 *984:D *984:CLK 0.000302466
*RES
1 *955:ZN *984:D 10.62 
*END

*D_NET *24 0.000602542
*CONN
*I *985:D I *D gf180mcu_fd_sc_mcu7t5v0__dffq_1
*I *956:ZN O *D gf180mcu_fd_sc_mcu7t5v0__nand2_1
*CAP
1 *985:D 0.00026053
2 *956:ZN 0.00026053
3 *985:D *956:A1 6.06287e-05
4 *985:D *985:CLK 2.08531e-05
*RES
1 *956:ZN *985:D 10.8 
*END

*D_NET *25 0.000535208
*CONN
*I *986:D I *D gf180mcu_fd_sc_mcu7t5v0__dffq_1
*I *958:ZN O *D gf180mcu_fd_sc_mcu7t5v0__aoi211_1
*CAP
1 *986:D 0.000247872
2 *958:ZN 0.000247872
3 *986:D *92:12 3.94638e-05
*RES
1 *958:ZN *986:D 10.62 
*END

*D_NET *26 0.000994725
*CONN
*I *987:D I *D gf180mcu_fd_sc_mcu7t5v0__dffq_1
*I *960:ZN O *D gf180mcu_fd_sc_mcu7t5v0__aoi211_1
*CAP
1 *987:D 0.000418492
2 *960:ZN 0.000418492
3 *987:D *960:A1 1.44713e-05
4 *987:D *987:CLK 0
5 *987:D *103:10 0.00014327
*RES
1 *960:ZN *987:D 11.79 
*END

*D_NET *27 0.000848235
*CONN
*I *988:D I *D gf180mcu_fd_sc_mcu7t5v0__dffq_1
*I *962:ZN O *D gf180mcu_fd_sc_mcu7t5v0__aoi21_1
*CAP
1 *988:D 0.000308344
2 *962:ZN 0.000308344
3 *988:D *962:A2 0.000201397
4 *988:D *979:CLK 0
5 *988:D *120:80 3.01487e-05
*RES
1 *962:ZN *988:D 11.52 
*END

*D_NET *28 0.00032475
*CONN
*I *989:D I *D gf180mcu_fd_sc_mcu7t5v0__dffq_1
*I *964:ZN O *D gf180mcu_fd_sc_mcu7t5v0__aoi21_1
*CAP
1 *989:D 0.000102784
2 *964:ZN 0.000102784
3 *989:D *964:A1 0.000119182
*RES
1 *964:ZN *989:D 9.81 
*END

*D_NET *29 0.000893411
*CONN
*I *990:D I *D gf180mcu_fd_sc_mcu7t5v0__dffq_1
*I *966:ZN O *D gf180mcu_fd_sc_mcu7t5v0__aoi21_1
*CAP
1 *990:D 6.63065e-05
2 *966:ZN 6.63065e-05
3 *990:D *966:A1 0.000294431
4 *990:D *966:B 0.000294431
5 *990:D *104:12 0.000171937
*RES
1 *966:ZN *990:D 19.26 
*END

*D_NET *30 0.000887231
*CONN
*I *991:D I *D gf180mcu_fd_sc_mcu7t5v0__dffq_1
*I *968:ZN O *D gf180mcu_fd_sc_mcu7t5v0__aoi211_1
*CAP
1 *991:D 0.000256852
2 *968:ZN 0.000256852
3 *991:D *967:A2 0
4 *991:D *968:A1 7.77227e-05
5 *991:D *102:6 9.80802e-05
6 *991:D *102:11 7.36756e-05
7 *991:D *102:27 8.26145e-05
8 *991:D *102:32 4.14331e-05
*RES
1 *968:ZN *991:D 11.52 
*END

*D_NET *31 0.000645396
*CONN
*I *992:D I *D gf180mcu_fd_sc_mcu7t5v0__dffq_1
*I *971:ZN O *D gf180mcu_fd_sc_mcu7t5v0__nor2_1
*CAP
1 *992:D 0.00017416
2 *971:ZN 0.00017416
3 *992:D *117:25 0.000297076
*RES
1 *971:ZN *992:D 10.44 
*END

*D_NET *32 0.000270318
*CONN
*I *993:D I *D gf180mcu_fd_sc_mcu7t5v0__dffq_1
*I *973:ZN O *D gf180mcu_fd_sc_mcu7t5v0__nor2_1
*CAP
1 *993:D 0.000135159
2 *973:ZN 0.000135159
*RES
1 *973:ZN *993:D 9.81 
*END

*D_NET *33 0.000432882
*CONN
*I *994:D I *D gf180mcu_fd_sc_mcu7t5v0__dffq_1
*I *975:ZN O *D gf180mcu_fd_sc_mcu7t5v0__nor2_1
*CAP
1 *994:D 0.000187966
2 *975:ZN 0.000187966
3 *994:D *105:47 5.69493e-05
*RES
1 *975:ZN *994:D 10.26 
*END

*D_NET *34 0.000357208
*CONN
*I *995:D I *D gf180mcu_fd_sc_mcu7t5v0__dffq_1
*I *976:ZN O *D gf180mcu_fd_sc_mcu7t5v0__aoi21_1
*CAP
1 *995:D 0.000118465
2 *976:ZN 0.000118465
3 *995:D *121:12 7.84068e-05
4 *3:10 *995:D 4.18699e-05
*RES
1 *976:ZN *995:D 10.08 
*END

*D_NET *35 0.000468009
*CONN
*I *958:B I *D gf180mcu_fd_sc_mcu7t5v0__aoi211_1
*I *957:ZN O *D gf180mcu_fd_sc_mcu7t5v0__nor2_1
*CAP
1 *958:B 5.16944e-05
2 *957:ZN 5.16944e-05
3 *958:B *958:C 0.000246336
4 *958:B *92:12 0.000118285
*RES
1 *957:ZN *958:B 19.35 
*END

*D_NET *36 0.00109827
*CONN
*I *960:B I *D gf180mcu_fd_sc_mcu7t5v0__aoi211_1
*I *959:ZN O *D gf180mcu_fd_sc_mcu7t5v0__nor2_1
*CAP
1 *960:B 0.000286478
2 *959:ZN 0.000286478
3 *960:B *929:A1 0.000217587
4 *960:B *959:A2 0.000223398
5 *960:B *960:C 1.71254e-05
6 *960:B *979:CLK 0
7 *960:B *103:10 6.72097e-05
*RES
1 *959:ZN *960:B 20.88 
*END

*D_NET *37 0.00094365
*CONN
*I *962:B I *D gf180mcu_fd_sc_mcu7t5v0__aoi21_1
*I *961:ZN O *D gf180mcu_fd_sc_mcu7t5v0__oai21_1
*CAP
1 *962:B 0.000130769
2 *961:ZN 0.000130769
3 *962:B *929:A1 0.000682113
4 *962:B *959:A1 0
*RES
1 *961:ZN *962:B 19.71 
*END

*D_NET *38 0.00261356
*CONN
*I *964:B I *D gf180mcu_fd_sc_mcu7t5v0__aoi21_1
*I *963:ZN O *D gf180mcu_fd_sc_mcu7t5v0__oai21_1
*CAP
1 *964:B 0.00031755
2 *963:ZN 0.00031755
3 *964:B *948:A2 0.000830438
4 *964:B *963:A1 0.000302466
5 *964:B *968:A2 0.000830438
6 *964:B *991:CLK 0
7 *964:B *95:8 1.51153e-05
*RES
1 *963:ZN *964:B 22.32 
*END

*D_NET *39 0.00221408
*CONN
*I *966:B I *D gf180mcu_fd_sc_mcu7t5v0__aoi21_1
*I *965:ZN O *D gf180mcu_fd_sc_mcu7t5v0__oai21_1
*CAP
1 *966:B 0.000372959
2 *965:ZN 0.000372959
3 *966:B *963:B 2.08042e-05
4 *966:B *966:A1 0.000405241
5 *966:B *102:32 0.000226744
6 *966:B *120:12 0.00052094
7 *990:D *966:B 0.000294431
*RES
1 *965:ZN *966:B 22.86 
*END

*D_NET *40 0.00113496
*CONN
*I *968:B I *D gf180mcu_fd_sc_mcu7t5v0__aoi211_1
*I *967:ZN O *D gf180mcu_fd_sc_mcu7t5v0__nor2_1
*CAP
1 *968:B 1.544e-05
2 *967:ZN 1.544e-05
3 *968:B *902:I 0.000754995
4 *968:B *952:A1 0.000263461
5 *968:B *117:99 8.56272e-05
*RES
1 *967:ZN *968:B 19.89 
*END

*D_NET *41 0.00404184
*CONN
*I *970:B1 I *D gf180mcu_fd_sc_mcu7t5v0__aoi22_1
*I *975:A1 I *D gf180mcu_fd_sc_mcu7t5v0__nor2_1
*I *972:B1 I *D gf180mcu_fd_sc_mcu7t5v0__aoi22_1
*I *969:ZN O *D gf180mcu_fd_sc_mcu7t5v0__nor2_1
*CAP
1 *970:B1 3.44897e-05
2 *975:A1 0.00045984
3 *972:B1 0
4 *969:ZN 7.65824e-05
5 *41:8 0.000689854
6 *41:6 0.000341087
7 *975:A1 *972:A1 0.000326818
8 *975:A1 *973:A1 0.00019593
9 *975:A1 *973:A2 0.000223398
10 *975:A1 *117:25 9.49471e-06
11 *41:6 *914:A1 1.06178e-05
12 *41:6 *914:A2 0.00015997
13 *41:6 *969:A2 0.00037349
14 *41:6 *970:B2 4.83522e-05
15 *41:6 *972:A2 2.26729e-05
16 *41:8 *914:A1 2.32821e-05
17 *41:8 *972:A2 0.000153685
18 *41:8 *972:B2 0.000141002
19 *41:8 *973:A1 0.000240548
20 *41:8 *973:A2 3.55118e-05
21 *3:10 *975:A1 0.000475219
*RES
1 *969:ZN *41:6 6.03 
2 *41:6 *41:8 2.61 
3 *41:8 *972:B1 4.5 
4 *41:8 *975:A1 18.9 
5 *41:6 *970:B1 4.77 
*END

*D_NET *42 0.000869516
*CONN
*I *971:A2 I *D gf180mcu_fd_sc_mcu7t5v0__nor2_1
*I *970:ZN O *D gf180mcu_fd_sc_mcu7t5v0__aoi22_1
*CAP
1 *971:A2 0.0001817
2 *970:ZN 0.0001817
3 *971:A2 *903:I 5.05894e-05
4 *971:A2 *969:A2 0.000310421
5 *971:A2 *970:A1 0.000145105
6 *971:A2 *117:25 0
*RES
1 *970:ZN *971:A2 20.16 
*END

*D_NET *43 0.000457826
*CONN
*I *973:A2 I *D gf180mcu_fd_sc_mcu7t5v0__nor2_1
*I *972:ZN O *D gf180mcu_fd_sc_mcu7t5v0__aoi22_1
*CAP
1 *973:A2 9.94583e-05
2 *972:ZN 9.94583e-05
3 *975:A1 *973:A2 0.000223398
4 *41:8 *973:A2 3.55118e-05
*RES
1 *972:ZN *973:A2 9.81 
*END

*D_NET *44 0.000879333
*CONN
*I *975:A2 I *D gf180mcu_fd_sc_mcu7t5v0__nor2_1
*I *974:ZN O *D gf180mcu_fd_sc_mcu7t5v0__oai21_1
*CAP
1 *975:A2 0.00019662
2 *974:ZN 0.00019662
3 *3:10 *975:A2 0.000486092
*RES
1 *974:ZN *975:A2 20.61 
*END

*D_NET *45 0.000257879
*CONN
*I *937:B2 I *D gf180mcu_fd_sc_mcu7t5v0__oai22_1
*I *901:ZN O *D gf180mcu_fd_sc_mcu7t5v0__clkinv_1
*CAP
1 *937:B2 0.000112378
2 *901:ZN 0.000112378
3 *937:B2 *934:B2 1.27836e-05
4 *937:B2 *937:B1 4.6613e-06
5 *937:B2 *96:23 1.56779e-05
*RES
1 *901:ZN *937:B2 9.9 
*END

*D_NET *46 0.00449083
*CONN
*I *937:A1 I *D gf180mcu_fd_sc_mcu7t5v0__oai22_1
*I *934:B2 I *D gf180mcu_fd_sc_mcu7t5v0__aoi221_1
*I *902:ZN O *D gf180mcu_fd_sc_mcu7t5v0__clkinv_1
*CAP
1 *937:A1 0
2 *934:B2 0.000768131
3 *902:ZN 0.000210345
4 *46:10 0.000978476
5 *934:B2 *937:A2 0.000164693
6 *934:B2 *937:B1 3.01487e-05
7 *934:B2 *951:B 0.00114605
8 *934:B2 *96:8 0
9 *934:B2 *96:23 0
10 *46:10 *952:A1 0.00109115
11 *46:10 *122:33 8.90578e-05
12 *937:B2 *934:B2 1.27836e-05
*RES
1 *902:ZN *46:10 16.29 
2 *46:10 *934:B2 11.79 
3 *46:10 *937:A1 4.5 
*END

*D_NET *47 0.00698014
*CONN
*I *917:A1 I *D gf180mcu_fd_sc_mcu7t5v0__and4_1
*I *916:A2 I *D gf180mcu_fd_sc_mcu7t5v0__nand2_1
*I *915:A2 I *D gf180mcu_fd_sc_mcu7t5v0__nand2_1
*I *919:A2 I *D gf180mcu_fd_sc_mcu7t5v0__nand2_1
*I *920:A2 I *D gf180mcu_fd_sc_mcu7t5v0__nand2_1
*I *921:A2 I *D gf180mcu_fd_sc_mcu7t5v0__nand2_1
*I *918:A2 I *D gf180mcu_fd_sc_mcu7t5v0__nand2_1
*I *922:B I *D gf180mcu_fd_sc_mcu7t5v0__oai21_1
*I *903:ZN O *D gf180mcu_fd_sc_mcu7t5v0__clkinv_1
*CAP
1 *917:A1 0.000189774
2 *916:A2 0
3 *915:A2 0
4 *919:A2 0
5 *920:A2 0
6 *921:A2 0
7 *918:A2 5.77927e-05
8 *922:B 9.08649e-06
9 *903:ZN 0.000386798
10 *47:51 0.000235832
11 *47:47 0.000369054
12 *47:34 0.000246236
13 *47:32 0.000479049
14 *47:22 0.000581841
15 *47:14 0.000231737
16 *47:8 0.000659382
17 *917:A1 *968:A2 0
18 *917:A1 *116:8 4.81899e-05
19 *918:A2 *921:A1 6.05852e-05
20 *918:A2 *923:A2 1.27919e-05
21 *918:A2 *958:A2 4.6613e-06
22 *918:A2 *62:8 0.000154129
23 *918:A2 *124:12 0.000265503
24 *922:B *918:A1 0.000106536
25 *922:B *921:A1 3.97987e-05
26 *47:8 *917:A2 0
27 *47:8 *924:A3 0
28 *47:8 *1016:I 4.31393e-06
29 *47:8 *117:35 0
30 *47:14 *917:A4 3.38355e-05
31 *47:14 *923:A1 0.000287368
32 *47:14 *924:A3 0
33 *47:14 *1016:I 0.000417061
34 *47:22 *917:A3 2.70026e-05
35 *47:22 *964:A2 0.000244819
36 *47:22 *968:A2 6.05946e-05
37 *47:32 *915:A1 3.55118e-05
38 *47:32 *917:A4 3.55118e-05
39 *47:32 *919:A1 6.29439e-05
40 *47:32 *923:A1 0.000175609
41 *47:32 *115:8 0.000416553
42 *47:34 *918:A1 0.000409001
43 *47:34 *921:A1 1.0415e-05
44 *47:34 *115:8 0.000205482
45 *47:47 *919:A1 0
46 *47:47 *920:A1 0.000101425
47 *47:47 *921:A1 6.0354e-06
48 *47:47 *966:A2 0
49 *47:47 *63:10 0
50 *47:47 *124:12 1.85284e-05
51 *47:51 *921:A1 2.32355e-05
52 *47:51 *923:A2 8.23063e-05
53 *47:51 *115:8 2.89427e-06
54 *47:51 *124:12 8.88191e-05
55 pwm *47:32 0
56 *1005:I *47:32 7.69771e-05
57 *1005:I *47:34 1.51153e-05
*RES
1 *903:ZN *47:8 7.02 
2 *47:8 *47:14 1.71 
3 *47:14 *47:22 10.26 
4 *47:22 *47:32 4.41 
5 *47:32 *47:34 1.35 
6 *47:34 *922:B 4.77 
7 *47:34 *47:47 10.35 
8 *47:47 *47:51 1.44 
9 *47:51 *918:A2 14.76 
10 *47:51 *921:A2 4.5 
11 *47:47 *920:A2 4.5 
12 *47:32 *919:A2 4.5 
13 *47:22 *915:A2 4.5 
14 *47:14 *916:A2 4.5 
15 *47:8 *917:A1 15.21 
*END

*D_NET *48 0.00616333
*CONN
*I *974:B I *D gf180mcu_fd_sc_mcu7t5v0__oai21_1
*I *1004:I I *D gf180mcu_fd_sc_mcu7t5v0__buf_2
*I *904:ZN O *D gf180mcu_fd_sc_mcu7t5v0__clkinv_1
*CAP
1 *974:B 0.00110987
2 *1004:I 0.000140299
3 *904:ZN 0.000115773
4 *48:6 0.00136595
5 *974:B *911:A2 0.000295943
6 *974:B *943:B1 0.00020066
7 *974:B *943:B2 2.36409e-05
8 *974:B *945:A2 0.000168811
9 *974:B *945:B 0.000341433
10 *974:B *955:A2 1.0415e-05
11 *974:B *956:A1 0.000359274
12 *974:B *974:A1 9.92405e-05
13 *974:B *1002:I 2.4064e-05
14 *974:B *54:10 0.000358535
15 *974:B *86:8 0.000895771
16 *974:B *99:27 1.10821e-05
17 *974:B *100:10 3.01487e-05
18 *974:B *114:12 6.58723e-05
19 *974:B *121:8 7.55765e-06
20 *974:B *121:12 7.4895e-06
21 *974:B *122:16 1.84476e-05
22 *974:B *122:77 1.07374e-05
23 *1004:I *956:A1 0
24 *1004:I *53:12 3.48805e-05
25 *1004:I *122:10 0.000309993
26 *48:6 *955:A2 0.000151417
27 *3:10 *974:B 6.02483e-06
*RES
1 *904:ZN *48:6 5.49 
2 *48:6 *1004:I 14.85 
3 *48:6 *974:B 25.65 
*END

*D_NET *49 0.00501363
*CONN
*I *927:A1 I *D gf180mcu_fd_sc_mcu7t5v0__oai21_1
*I *932:A2 I *D gf180mcu_fd_sc_mcu7t5v0__nor3_1
*I *951:A1 I *D gf180mcu_fd_sc_mcu7t5v0__oai21_1
*I *933:A2 I *D gf180mcu_fd_sc_mcu7t5v0__xor2_1
*I *905:Z O *D gf180mcu_fd_sc_mcu7t5v0__and3_1
*CAP
1 *927:A1 0
2 *932:A2 0
3 *951:A1 0.000211321
4 *933:A2 0.000501107
5 *905:Z 0.000379236
6 *49:32 0.000426486
7 *49:24 0.000337036
8 *933:A2 *906:A1 2.40587e-06
9 *933:A2 *906:A2 0.000302466
10 *933:A2 *906:A3 0.000464997
11 *933:A2 *906:A4 3.58953e-05
12 *933:A2 *927:B 0
13 *951:A1 *951:A2 0.000304706
14 *951:A1 *951:B 0.000186218
15 *49:24 *927:B 0
16 *49:24 *77:10 0.0006118
17 *49:32 *927:A2 0.000151427
18 *49:32 *927:B 0.000754368
19 *49:32 *934:A1 0
20 *49:32 *70:8 3.12451e-05
21 *49:32 *70:14 0.000292006
22 *49:32 *77:10 0
23 *49:32 *104:35 2.09122e-05
*RES
1 *905:Z *933:A2 12.96 
2 *933:A2 *49:24 15.21 
3 *49:24 *49:32 12.06 
4 *49:32 *951:A1 6.84 
5 *49:32 *932:A2 4.5 
6 *49:24 *927:A1 4.5 
*END

*D_NET *50 0.00710892
*CONN
*I *907:A2 I *D gf180mcu_fd_sc_mcu7t5v0__nand2_1
*I *909:A4 I *D gf180mcu_fd_sc_mcu7t5v0__nand4_1
*I *908:A3 I *D gf180mcu_fd_sc_mcu7t5v0__nand3_1
*I *935:A2 I *D gf180mcu_fd_sc_mcu7t5v0__xor2_1
*I *906:Z O *D gf180mcu_fd_sc_mcu7t5v0__and4_1
*CAP
1 *907:A2 0
2 *909:A4 0.000346587
3 *908:A3 0
4 *935:A2 0
5 *906:Z 0.00141356
6 *50:27 0.000984746
7 *50:19 0.00117474
8 *50:8 0.00195015
9 *909:A4 *909:A1 3.05996e-05
10 *909:A4 *909:A2 3.99345e-05
11 *909:A4 *909:A3 0
12 *50:8 *906:A3 0
13 *50:8 *935:A1 5.97457e-06
14 *50:8 *79:14 0.000106536
15 *50:8 *110:12 0
16 *50:19 *907:A1 3.55118e-05
17 *50:19 *935:A1 4.91692e-05
18 *50:19 *79:14 0.00015012
19 *50:19 *111:17 0
20 *50:27 *907:A1 3.22348e-05
21 *50:27 *909:A1 5.34014e-05
22 *50:27 *938:A1 0.000139804
23 *50:27 *938:A2 0.000151417
24 *50:27 *111:32 7.96333e-06
25 *50:27 *112:8 0.000436469
*RES
1 *906:Z *50:8 13.86 
2 *50:8 *935:A2 4.5 
3 *50:8 *50:19 4.05 
4 *50:19 *50:27 9.81 
5 *50:27 *908:A3 9 
6 *50:27 *909:A4 11.52 
7 *50:19 *907:A2 4.5 
*END

*D_NET *51 0.000402484
*CONN
*I *938:A2 I *D gf180mcu_fd_sc_mcu7t5v0__xor2_1
*I *907:ZN O *D gf180mcu_fd_sc_mcu7t5v0__nand2_1
*CAP
1 *938:A2 7.64738e-05
2 *907:ZN 7.64738e-05
3 *938:A2 *938:A1 3.55118e-05
4 *938:A2 *111:32 6.26074e-05
5 *50:27 *938:A2 0.000151417
*RES
1 *907:ZN *938:A2 9.99 
*END

*D_NET *52 0.000837466
*CONN
*I *940:A2 I *D gf180mcu_fd_sc_mcu7t5v0__xor2_1
*I *908:ZN O *D gf180mcu_fd_sc_mcu7t5v0__nand3_1
*CAP
1 *940:A2 0.000140249
2 *908:ZN 0.000140249
3 *940:A2 *909:A1 0.000183724
4 *940:A2 *909:A2 6.54299e-05
5 *940:A2 *84:10 0
6 *940:A2 *111:32 3.97987e-05
7 *940:A2 *112:8 0.000237866
8 *940:A2 *113:10 3.01487e-05
*RES
1 *908:ZN *940:A2 10.53 
*END

*D_NET *53 0.00383634
*CONN
*I *942:A2 I *D gf180mcu_fd_sc_mcu7t5v0__xor2_1
*I *910:I I *D gf180mcu_fd_sc_mcu7t5v0__clkinv_1
*I *909:ZN O *D gf180mcu_fd_sc_mcu7t5v0__nand4_1
*CAP
1 *942:A2 0.000288135
2 *910:I 0
3 *909:ZN 0.000875405
4 *53:12 0.00116354
5 *942:A2 *943:B1 4.85129e-05
6 *942:A2 *943:B2 1.86887e-06
7 *942:A2 *54:10 3.21686e-05
8 *942:A2 *114:6 3.98088e-05
9 *53:12 *904:I 6.0354e-06
10 *53:12 *909:A3 0.000380305
11 *53:12 *943:B1 0.00015997
12 *53:12 *84:10 0.00039727
13 *53:12 *84:14 0.00040844
14 *53:12 *122:10 0
15 *1004:I *53:12 3.48805e-05
*RES
1 *909:ZN *53:12 23.22 
2 *53:12 *910:I 4.5 
3 *53:12 *942:A2 6.66 
*END

*D_NET *54 0.00190781
*CONN
*I *912:A2 I *D gf180mcu_fd_sc_mcu7t5v0__nand2_1
*I *911:A2 I *D gf180mcu_fd_sc_mcu7t5v0__and2_1
*I *910:ZN O *D gf180mcu_fd_sc_mcu7t5v0__clkinv_1
*CAP
1 *912:A2 6.52762e-05
2 *911:A2 0.000122405
3 *910:ZN 0.000164519
4 *54:10 0.0003522
5 *911:A2 *912:A1 7.62825e-05
6 *911:A2 *1002:I 9.884e-05
7 *912:A2 *912:A1 5.82028e-05
8 *912:A2 *943:B2 0.000127967
9 *912:A2 *1002:I 0
10 *54:10 *943:B1 0.00015547
11 *942:A2 *54:10 3.21686e-05
12 *974:B *911:A2 0.000295943
13 *974:B *54:10 0.000358535
*RES
1 *910:ZN *54:10 10.44 
2 *54:10 *911:A2 10.44 
3 *54:10 *912:A2 9.63 
*END

*D_NET *55 0.00786624
*CONN
*I *1003:I I *D gf180mcu_fd_sc_mcu7t5v0__buf_2
*I *1002:I I *D gf180mcu_fd_sc_mcu7t5v0__buf_2
*I *911:Z O *D gf180mcu_fd_sc_mcu7t5v0__and2_1
*CAP
1 *1003:I 0.00085617
2 *1002:I 0.00180894
3 *911:Z 0
4 *55:4 0.00266511
5 *1002:I *902:I 2.31089e-05
6 *1002:I *904:I 0
7 *1002:I *912:A1 1.53118e-05
8 *1002:I *943:A1 3.50491e-05
9 *1002:I *943:B1 3.02306e-05
10 *1002:I *943:B2 0.000294421
11 *1002:I *965:B 9.04462e-05
12 *1002:I *967:A2 0.000256708
13 *1002:I *985:CLK 0.000166438
14 *1002:I *1000:I 9.87249e-05
15 *1002:I *56:10 0.000231357
16 *1002:I *96:8 3.02778e-05
17 *1002:I *97:19 0
18 *1002:I *102:32 0
19 *1002:I *102:66 8.26066e-05
20 *1002:I *102:71 0.000817687
21 *1002:I *120:8 3.94491e-05
22 *1003:I *956:A1 0
23 *1003:I *985:CLK 0.000201304
24 *911:A2 *1002:I 9.884e-05
25 *912:A2 *1002:I 0
26 *974:B *1002:I 2.4064e-05
*RES
1 *911:Z *55:4 4.5 
2 *55:4 *1002:I 29.25 
3 *55:4 *1003:I 20.16 
*END

*D_NET *56 0.0112317
*CONN
*I *947:C I *D gf180mcu_fd_sc_mcu7t5v0__oai211_1
*I *925:A2 I *D gf180mcu_fd_sc_mcu7t5v0__nand2_1
*I *972:A2 I *D gf180mcu_fd_sc_mcu7t5v0__aoi22_1
*I *970:A2 I *D gf180mcu_fd_sc_mcu7t5v0__aoi22_1
*I *969:A2 I *D gf180mcu_fd_sc_mcu7t5v0__nor2_1
*I *912:ZN O *D gf180mcu_fd_sc_mcu7t5v0__nand2_1
*CAP
1 *947:C 0
2 *925:A2 0.000316554
3 *972:A2 0.000324635
4 *970:A2 0
5 *969:A2 0.000133916
6 *912:ZN 0.000377111
7 *56:33 0.000324635
8 *56:18 0.00087762
9 *56:12 0.0013703
10 *56:10 0.000687154
11 *925:A2 *925:A1 0.000444513
12 *925:A2 *947:A1 0
13 *969:A2 *903:I 0
14 *969:A2 *970:A1 0.000125305
15 *972:A2 *117:25 0
16 *56:10 *904:I 8.3187e-05
17 *56:10 *943:B2 1.27919e-05
18 *56:10 *985:CLK 0
19 *56:10 *98:21 0.000791436
20 *56:10 *102:11 0
21 *56:10 *106:12 0.000538909
22 *56:12 *904:I 2.70125e-05
23 *56:12 *98:21 0.00104958
24 *56:18 *970:A1 0.000288503
25 *56:18 *992:CLK 0.00101917
26 *56:18 *98:21 0.000647853
27 *56:18 *105:30 0.000458327
28 *971:A2 *969:A2 0.000310421
29 *1002:I *56:10 0.000231357
30 *3:10 *925:A2 0.000241528
31 *41:6 *969:A2 0.00037349
32 *41:6 *972:A2 2.26729e-05
33 *41:8 *972:A2 0.000153685
*RES
1 *912:ZN *56:10 13.68 
2 *56:10 *56:12 2.79 
3 *56:12 *56:18 8.91 
4 *56:18 *969:A2 10.89 
5 *56:18 *56:33 4.5 
6 *56:33 *970:A2 4.5 
7 *56:33 *972:A2 6.93 
8 *56:12 *925:A2 12.06 
9 *56:10 *947:C 9 
*END

*D_NET *57 0.00126982
*CONN
*I *976:A1 I *D gf180mcu_fd_sc_mcu7t5v0__aoi21_1
*I *913:ZN O *D gf180mcu_fd_sc_mcu7t5v0__nand2_1
*CAP
1 *976:A1 4.86695e-05
2 *913:ZN 4.86695e-05
3 *976:A1 *117:74 0.00052863
4 *976:A1 *117:93 0.000109323
5 *976:A1 *121:22 6.85018e-05
6 *976:A1 *121:50 0.000466026
*RES
1 *913:ZN *976:A1 19.71 
*END

*D_NET *58 0.000850336
*CONN
*I *917:A2 I *D gf180mcu_fd_sc_mcu7t5v0__and4_1
*I *914:ZN O *D gf180mcu_fd_sc_mcu7t5v0__nor2_1
*CAP
1 *917:A2 0.000287267
2 *914:ZN 0.000287267
3 *917:A2 *914:A1 6.53022e-05
4 *917:A2 *915:A1 0.000210501
5 *47:8 *917:A2 0
*RES
1 *914:ZN *917:A2 11.52 
*END

*D_NET *59 0.00728702
*CONN
*I *968:A2 I *D gf180mcu_fd_sc_mcu7t5v0__aoi211_1
*I *917:A3 I *D gf180mcu_fd_sc_mcu7t5v0__and4_1
*I *915:ZN O *D gf180mcu_fd_sc_mcu7t5v0__nand2_1
*CAP
1 *968:A2 0.000997094
2 *917:A3 0.000198298
3 *915:ZN 0
4 *59:6 0.00119539
5 *917:A3 *915:A1 5.66716e-05
6 *917:A3 *916:A1 0.000109332
7 *917:A3 *917:A4 4.96766e-05
8 *968:A2 *902:I 0
9 *968:A2 *916:A1 0.000503272
10 *968:A2 *948:A2 0.000557206
11 *968:A2 *963:A1 0
12 *968:A2 *964:A2 0.00229953
13 *968:A2 *991:CLK 6.92926e-05
14 *968:A2 *1016:I 3.8796e-05
15 *968:A2 *117:99 0.000294421
16 *917:A1 *968:A2 0
17 *964:B *968:A2 0.000830438
18 *47:22 *917:A3 2.70026e-05
19 *47:22 *968:A2 6.05946e-05
*RES
1 *915:ZN *59:6 9 
2 *59:6 *917:A3 10.8 
3 *59:6 *968:A2 21.96 
*END

*D_NET *60 0.00493991
*CONN
*I *964:A2 I *D gf180mcu_fd_sc_mcu7t5v0__aoi21_1
*I *917:A4 I *D gf180mcu_fd_sc_mcu7t5v0__and4_1
*I *916:ZN O *D gf180mcu_fd_sc_mcu7t5v0__nand2_1
*CAP
1 *964:A2 0.000326966
2 *917:A4 0.000165694
3 *916:ZN 0
4 *60:4 0.000492661
5 *917:A4 *915:A1 3.22348e-05
6 *917:A4 *923:A1 0.000180811
7 *964:A2 *948:A2 0.00102499
8 *917:A3 *917:A4 4.96766e-05
9 *968:A2 *964:A2 0.00229953
10 *977:D *964:A2 5.31837e-05
11 *47:14 *917:A4 3.38355e-05
12 *47:22 *964:A2 0.000244819
13 *47:32 *917:A4 3.55118e-05
*RES
1 *916:ZN *60:4 4.5 
2 *60:4 *917:A4 6.3 
3 *60:4 *964:A2 19.53 
*END

*D_NET *61 0.00221555
*CONN
*I *923:A1 I *D gf180mcu_fd_sc_mcu7t5v0__nand4_1
*I *917:Z O *D gf180mcu_fd_sc_mcu7t5v0__and4_1
*CAP
1 *923:A1 0.000656916
2 *917:Z 0.000656916
3 *923:A1 *916:A1 8.49208e-05
4 *923:A1 *924:A3 0.000112242
5 *923:A1 *966:A2 0
6 *923:A1 *1016:I 3.45835e-05
7 *923:A1 *63:10 1.54403e-05
8 *923:A1 *115:8 1.07374e-05
9 *923:A1 *117:43 0
10 *917:A4 *923:A1 0.000180811
11 *47:14 *923:A1 0.000287368
12 *47:32 *923:A1 0.000175609
*RES
1 *917:Z *923:A1 23.85 
*END

*D_NET *62 0.00357015
*CONN
*I *960:A2 I *D gf180mcu_fd_sc_mcu7t5v0__aoi211_1
*I *923:A2 I *D gf180mcu_fd_sc_mcu7t5v0__nand4_1
*I *918:ZN O *D gf180mcu_fd_sc_mcu7t5v0__nand2_1
*CAP
1 *960:A2 0.000567941
2 *923:A2 0.000440871
3 *918:ZN 0.000159328
4 *62:8 0.00116814
5 *923:A2 *923:A4 2.8591e-05
6 *923:A2 *958:A2 0.000169524
7 *923:A2 *115:8 0
8 *923:A2 *117:43 0
9 *960:A2 *958:A1 0
10 *960:A2 *960:A1 1.39839e-05
11 *960:A2 *962:A2 0
12 *960:A2 *103:10 0
13 *960:A2 *103:30 0
14 *960:A2 *117:43 0.000755685
15 *960:A2 *120:47 0
16 *62:8 *920:A1 0
17 *62:8 *921:A1 1.68605e-05
18 *62:8 *958:A1 0
19 *918:A2 *923:A2 1.27919e-05
20 *918:A2 *62:8 0.000154129
21 *47:51 *923:A2 8.23063e-05
*RES
1 *918:ZN *62:8 10.53 
2 *62:8 *923:A2 12.33 
3 *62:8 *960:A2 13.14 
*END

*D_NET *63 0.00547962
*CONN
*I *966:A2 I *D gf180mcu_fd_sc_mcu7t5v0__aoi21_1
*I *923:A3 I *D gf180mcu_fd_sc_mcu7t5v0__nand4_1
*I *919:ZN O *D gf180mcu_fd_sc_mcu7t5v0__nand2_1
*CAP
1 *966:A2 0.00151251
2 *923:A3 0
3 *919:ZN 0.000168885
4 *63:10 0.00168139
5 *966:A2 *920:A1 0
6 *966:A2 *962:A2 0
7 *966:A2 *964:A1 0.000458327
8 *966:A2 *966:A1 0.00017692
9 *966:A2 *991:CLK 0.000507492
10 *966:A2 *104:12 0.000436478
11 *966:A2 *120:18 6.38539e-05
12 *966:A2 *120:24 0.000458327
13 *923:A1 *966:A2 0
14 *923:A1 *63:10 1.54403e-05
15 *47:47 *966:A2 0
16 *47:47 *63:10 0
*RES
1 *919:ZN *63:10 10.26 
2 *63:10 *923:A3 9 
3 *63:10 *966:A2 21.96 
*END

*D_NET *64 0.00345105
*CONN
*I *962:A2 I *D gf180mcu_fd_sc_mcu7t5v0__aoi21_1
*I *920:ZN O *D gf180mcu_fd_sc_mcu7t5v0__nand2_1
*CAP
1 *962:A2 0.000928
2 *920:ZN 0.000928
3 *962:A2 *959:A2 1.56779e-05
4 *962:A2 *989:CLK 0.000365445
5 *962:A2 *103:10 0.000565118
6 *962:A2 *103:30 0.000444513
7 *962:A2 *120:80 2.89427e-06
8 *960:A2 *962:A2 0
9 *966:A2 *962:A2 0
10 *988:D *962:A2 0.000201397
*RES
1 *920:ZN *962:A2 25.56 
*END

*D_NET *65 0.000939454
*CONN
*I *958:A2 I *D gf180mcu_fd_sc_mcu7t5v0__aoi211_1
*I *921:ZN O *D gf180mcu_fd_sc_mcu7t5v0__nand2_1
*CAP
1 *958:A2 0.000357753
2 *921:ZN 0.000357753
3 *958:A2 *957:A2 2.40587e-06
4 *958:A2 *958:A1 3.97987e-05
5 *958:A2 *92:12 7.55765e-06
6 *918:A2 *958:A2 4.6613e-06
7 *923:A2 *958:A2 0.000169524
*RES
1 *921:ZN *958:A2 11.43 
*END

*D_NET *66 0.000764685
*CONN
*I *923:A4 I *D gf180mcu_fd_sc_mcu7t5v0__nand4_1
*I *922:ZN O *D gf180mcu_fd_sc_mcu7t5v0__oai21_1
*CAP
1 *923:A4 0.00014579
2 *922:ZN 0.00014579
3 *923:A4 *115:8 0.000444513
4 *923:A2 *923:A4 2.8591e-05
*RES
1 *922:ZN *923:A4 10.62 
*END

*D_NET *67 0.00274362
*CONN
*I *924:A3 I *D gf180mcu_fd_sc_mcu7t5v0__nand3_1
*I *923:ZN O *D gf180mcu_fd_sc_mcu7t5v0__nand4_1
*CAP
1 *924:A3 0.00075196
2 *923:ZN 0.00075196
3 *924:A3 *1016:I 2.63516e-05
4 *924:A3 *117:35 0.000984845
5 *924:A3 *117:43 0.00011626
6 *923:A1 *924:A3 0.000112242
7 *47:8 *924:A3 0
8 *47:14 *924:A3 0
*RES
1 *923:ZN *924:A3 15.48 
*END

*D_NET *68 0.000721042
*CONN
*I *948:A1 I *D gf180mcu_fd_sc_mcu7t5v0__aoi21_1
*I *924:ZN O *D gf180mcu_fd_sc_mcu7t5v0__nand3_1
*CAP
1 *948:A1 0.00028234
2 *924:ZN 0.00028234
3 *948:A1 *117:35 0.000119587
4 *948:A1 *117:43 1.34934e-05
5 *977:D *948:A1 2.32821e-05
*RES
1 *924:ZN *948:A1 11.25 
*END

*D_NET *69 0.000488681
*CONN
*I *976:A2 I *D gf180mcu_fd_sc_mcu7t5v0__aoi21_1
*I *925:ZN O *D gf180mcu_fd_sc_mcu7t5v0__nand2_1
*CAP
1 *976:A2 1.36985e-05
2 *925:ZN 1.36985e-05
3 *976:A2 *117:93 0.000317701
4 *976:A2 *121:22 0.000143583
*RES
1 *925:ZN *976:A2 18.81 
*END

*D_NET *70 0.00305768
*CONN
*I *927:A2 I *D gf180mcu_fd_sc_mcu7t5v0__oai21_1
*I *932:A3 I *D gf180mcu_fd_sc_mcu7t5v0__nor3_1
*I *951:A2 I *D gf180mcu_fd_sc_mcu7t5v0__oai21_1
*I *926:ZN O *D gf180mcu_fd_sc_mcu7t5v0__aoi21_1
*CAP
1 *927:A2 5.61125e-05
2 *932:A3 0
3 *951:A2 0.000163836
4 *926:ZN 0.000290393
5 *70:14 0.000248653
6 *70:8 0.000431323
7 *927:A2 *104:35 0.000141012
8 *951:A2 *934:A2 0.000406981
9 *951:A2 *951:B 1.19491e-05
10 *951:A2 *104:35 0.000173237
11 *70:8 *906:A1 0
12 *70:8 *927:B 5.78854e-06
13 *70:8 *104:35 0.00033693
14 *70:14 *934:A1 1.20833e-05
15 *951:A1 *951:A2 0.000304706
16 *49:32 *927:A2 0.000151427
17 *49:32 *70:8 3.12451e-05
18 *49:32 *70:14 0.000292006
*RES
1 *926:ZN *70:8 7.02 
2 *70:8 *70:14 9.81 
3 *70:14 *951:A2 7.02 
4 *70:14 *932:A3 4.5 
5 *70:8 *927:A2 5.49 
*END

*D_NET *71 0.000318406
*CONN
*I *934:A1 I *D gf180mcu_fd_sc_mcu7t5v0__aoi221_1
*I *927:ZN O *D gf180mcu_fd_sc_mcu7t5v0__oai21_1
*CAP
1 *934:A1 8.13701e-05
2 *927:ZN 8.13701e-05
3 *934:A1 *77:10 0.000143583
4 *49:32 *934:A1 0
5 *70:14 *934:A1 1.20833e-05
*RES
1 *927:ZN *934:A1 18.81 
*END

*D_NET *72 0.000620917
*CONN
*I *931:A1 I *D gf180mcu_fd_sc_mcu7t5v0__aoi22_1
*I *928:Z O *D gf180mcu_fd_sc_mcu7t5v0__or2_1
*CAP
1 *931:A1 6.72329e-05
2 *928:Z 6.72329e-05
3 *931:A1 *928:A2 2.63343e-05
4 *931:A1 *929:A2 1.50774e-05
5 *931:A1 *931:B2 0.000255088
6 *931:A1 *934:A2 3.53802e-05
7 *931:A1 *949:A2 0.000154571
*RES
1 *928:Z *931:A1 19.35 
*END

*D_NET *73 0.000498666
*CONN
*I *931:A2 I *D gf180mcu_fd_sc_mcu7t5v0__aoi22_1
*I *929:Z O *D gf180mcu_fd_sc_mcu7t5v0__and2_1
*CAP
1 *931:A2 0.000197331
2 *929:Z 0.000197331
3 *931:A2 *928:A2 4.6613e-06
4 *931:A2 *929:A2 9.93432e-05
*RES
1 *929:Z *931:A2 10.26 
*END

*D_NET *74 0.00228306
*CONN
*I *931:B1 I *D gf180mcu_fd_sc_mcu7t5v0__aoi22_1
*I *950:A2 I *D gf180mcu_fd_sc_mcu7t5v0__nand2_1
*I *930:ZN O *D gf180mcu_fd_sc_mcu7t5v0__xnor2_1
*CAP
1 *931:B1 8.65606e-05
2 *950:A2 0.000153777
3 *930:ZN 4.79368e-05
4 *74:6 0.000288274
5 *931:B1 *928:A2 0.000245511
6 *931:B1 *929:A2 3.17412e-05
7 *950:A2 *949:A2 0.00103881
8 *950:A2 *108:17 9.39061e-05
9 *74:6 *928:A2 9.04462e-05
10 *74:6 *929:A2 5.78854e-06
11 *74:6 *107:16 3.07932e-05
12 *74:6 *108:8 0.000169515
*RES
1 *930:ZN *74:6 5.13 
2 *74:6 *950:A2 16.11 
3 *74:6 *931:B1 5.31 
*END

*D_NET *75 0.0036992
*CONN
*I *934:A2 I *D gf180mcu_fd_sc_mcu7t5v0__aoi221_1
*I *931:ZN O *D gf180mcu_fd_sc_mcu7t5v0__aoi22_1
*CAP
1 *934:A2 0.000735259
2 *931:ZN 0.000735259
3 *934:A2 *927:B 6.18244e-05
4 *934:A2 *929:A2 0.00023711
5 *934:A2 *934:C 0.000289828
6 *934:A2 *949:A2 4.27369e-05
7 *934:A2 *951:B 7.96333e-06
8 *934:A2 *94:21 0.000411307
9 *934:A2 *104:35 0.000735552
10 *934:A2 *108:17 0
11 *931:A1 *934:A2 3.53802e-05
12 *951:A2 *934:A2 0.000406981
*RES
1 *931:ZN *934:A2 27 
*END

*D_NET *76 0.000626908
*CONN
*I *934:C I *D gf180mcu_fd_sc_mcu7t5v0__aoi221_1
*I *932:ZN O *D gf180mcu_fd_sc_mcu7t5v0__nor3_1
*CAP
1 *934:C 0.000115909
2 *932:ZN 0.000115909
3 *934:C *934:B1 1.61174e-05
4 *934:C *951:B 8.91442e-05
5 *934:A2 *934:C 0.000289828
*RES
1 *932:ZN *934:C 10.53 
*END

*D_NET *77 0.00627391
*CONN
*I *937:A2 I *D gf180mcu_fd_sc_mcu7t5v0__oai22_1
*I *952:A2 I *D gf180mcu_fd_sc_mcu7t5v0__or2_1
*I *934:B1 I *D gf180mcu_fd_sc_mcu7t5v0__aoi221_1
*I *933:Z O *D gf180mcu_fd_sc_mcu7t5v0__xor2_1
*CAP
1 *937:A2 8.46348e-05
2 *952:A2 0.000195488
3 *934:B1 1.58819e-05
4 *933:Z 0.000337817
5 *77:21 0.000474215
6 *77:10 0.000547792
7 *934:B1 *939:B2 2.89427e-06
8 *934:B1 *951:B 0.000106536
9 *934:B1 *104:35 1.68677e-06
10 *937:A2 *939:B2 0.00131479
11 *937:A2 *951:B 0.000853549
12 *77:10 *927:B 0
13 *77:10 *94:21 0
14 *77:21 *939:B2 0.000193805
15 *77:21 *951:B 0.00120863
16 *934:A1 *77:10 0.000143583
17 *934:B2 *937:A2 0.000164693
18 *934:C *934:B1 1.61174e-05
19 *49:24 *77:10 0.0006118
20 *49:32 *77:10 0
*RES
1 *933:Z *77:10 16.83 
2 *77:10 *934:B1 4.77 
3 *77:10 *77:21 3.42 
4 *77:21 *952:A2 14.67 
5 *77:21 *937:A2 8.01 
*END

*D_NET *78 0.00428731
*CONN
*I *939:B2 I *D gf180mcu_fd_sc_mcu7t5v0__oai222_1
*I *934:ZN O *D gf180mcu_fd_sc_mcu7t5v0__aoi221_1
*CAP
1 *939:B2 0.000473137
2 *934:ZN 0.000473137
3 *939:B2 *937:B1 8.68281e-06
4 *939:B2 *939:B1 0.000140033
5 *939:B2 *952:A1 0.00144611
6 *939:B2 *953:A2 8.32982e-05
7 *939:B2 *104:35 0.000151427
8 *934:B1 *939:B2 2.89427e-06
9 *937:A2 *939:B2 0.00131479
10 *77:21 *939:B2 0.000193805
*RES
1 *934:ZN *939:B2 16.47 
*END

*D_NET *79 0.00404556
*CONN
*I *936:I I *D gf180mcu_fd_sc_mcu7t5v0__clkinv_1
*I *937:B1 I *D gf180mcu_fd_sc_mcu7t5v0__oai22_1
*I *935:Z O *D gf180mcu_fd_sc_mcu7t5v0__xor2_1
*CAP
1 *936:I 0.000127724
2 *937:B1 0.000211367
3 *935:Z 0.000605794
4 *79:14 0.000944885
5 *936:I *953:A2 7.86369e-05
6 *936:I *1017:I 0
7 *936:I *80:8 9.98816e-05
8 *936:I *122:25 0.000682386
9 *936:I *122:31 9.20698e-05
10 *937:B1 *939:A1 0.000129542
11 *937:B1 *939:B1 1.0415e-05
12 *937:B1 *939:C2 4.6613e-06
13 *937:B1 *952:A1 0.000375166
14 *937:B1 *953:A2 0.000247389
15 *937:B1 *122:31 0
16 *79:14 *953:A2 0.000135496
17 *934:B2 *937:B1 3.01487e-05
18 *937:B2 *937:B1 4.6613e-06
19 *939:B2 *937:B1 8.68281e-06
20 *50:8 *79:14 0.000106536
21 *50:19 *79:14 0.00015012
*RES
1 *935:Z *79:14 13.86 
2 *79:14 *937:B1 11.34 
3 *79:14 *936:I 11.07 
*END

*D_NET *80 0.00144623
*CONN
*I *939:A2 I *D gf180mcu_fd_sc_mcu7t5v0__oai222_1
*I *953:A2 I *D gf180mcu_fd_sc_mcu7t5v0__nand2_1
*I *936:ZN O *D gf180mcu_fd_sc_mcu7t5v0__clkinv_1
*CAP
1 *939:A2 0
2 *953:A2 0.00022258
3 *936:ZN 0.000163749
4 *80:8 0.000386329
5 *953:A2 *952:A1 1.0415e-05
6 *953:A2 *122:31 5.78854e-06
7 *80:8 *1017:I 1.26644e-05
8 *936:I *953:A2 7.86369e-05
9 *936:I *80:8 9.98816e-05
10 *937:B1 *953:A2 0.000247389
11 *939:B2 *953:A2 8.32982e-05
12 *79:14 *953:A2 0.000135496
*RES
1 *936:ZN *80:8 5.94 
2 *80:8 *953:A2 15.66 
3 *80:8 *939:A2 4.5 
*END

*D_NET *81 0.000408364
*CONN
*I *939:B1 I *D gf180mcu_fd_sc_mcu7t5v0__oai222_1
*I *937:ZN O *D gf180mcu_fd_sc_mcu7t5v0__oai22_1
*CAP
1 *939:B1 0.000115112
2 *937:ZN 0.000115112
3 *939:B1 *939:C2 2.76913e-05
4 *937:B1 *939:B1 1.0415e-05
5 *939:B2 *939:B1 0.000140033
*RES
1 *937:ZN *939:B1 9.99 
*END

*D_NET *82 0.00392608
*CONN
*I *954:A2 I *D gf180mcu_fd_sc_mcu7t5v0__nand2_1
*I *939:C1 I *D gf180mcu_fd_sc_mcu7t5v0__oai222_1
*I *941:A2 I *D gf180mcu_fd_sc_mcu7t5v0__aoi22_1
*I *938:Z O *D gf180mcu_fd_sc_mcu7t5v0__xor2_1
*CAP
1 *954:A2 0
2 *939:C1 0.000353805
3 *941:A2 0.000220087
4 *938:Z 0.000558579
5 *82:10 0.000830492
6 *82:8 0.000815179
7 *939:C1 *941:A1 0
8 *939:C1 *1017:I 0.000568062
9 *939:C1 *97:19 0
10 *941:A2 *941:A1 0.000108767
11 *941:A2 *944:A1 0.000261701
12 *941:A2 *944:A2 0.000107788
13 *941:A2 *947:A1 0.000101624
*RES
1 *938:Z *82:8 13.23 
2 *82:8 *82:10 1.89 
3 *82:10 *941:A2 11.52 
4 *82:10 *939:C1 12.51 
5 *82:8 *954:A2 9 
*END

*D_NET *83 0.00173225
*CONN
*I *1017:I I *D gf180mcu_fd_sc_mcu7t5v0__clkbuf_1
*I *939:ZN O *D gf180mcu_fd_sc_mcu7t5v0__oai222_1
*CAP
1 *1017:I 0.000551848
2 *939:ZN 0.000551848
3 *1017:I *944:A1 4.78286e-05
4 *1017:I *944:A2 0
5 *1017:I *122:16 0
6 *1017:I *122:25 0
7 *936:I *1017:I 0
8 *939:C1 *1017:I 0.000568062
9 *80:8 *1017:I 1.26644e-05
*RES
1 *939:ZN *1017:I 13.95 
*END

*D_NET *84 0.00473498
*CONN
*I *955:A2 I *D gf180mcu_fd_sc_mcu7t5v0__nand2_1
*I *943:A2 I *D gf180mcu_fd_sc_mcu7t5v0__oai22_1
*I *941:B1 I *D gf180mcu_fd_sc_mcu7t5v0__aoi22_1
*I *940:Z O *D gf180mcu_fd_sc_mcu7t5v0__xor2_1
*CAP
1 *955:A2 9.43398e-05
2 *943:A2 0
3 *941:B1 0.00024294
4 *940:Z 0.000352526
5 *84:14 0.000390537
6 *84:10 0.000594463
7 *941:B1 *941:A1 3.55118e-05
8 *941:B1 *944:A2 3.77882e-05
9 *941:B1 *944:B 0.000763401
10 *955:A2 *904:I 9.85004e-05
11 *955:A2 *122:16 0.000630788
12 *84:14 *904:I 0.000526643
13 *940:A2 *84:10 0
14 *974:B *955:A2 1.0415e-05
15 *48:6 *955:A2 0.000151417
16 *53:12 *84:10 0.00039727
17 *53:12 *84:14 0.00040844
*RES
1 *940:Z *84:10 12.6 
2 *84:10 *84:14 7.83 
3 *84:14 *941:B1 7.2 
4 *84:14 *943:A2 4.5 
5 *84:10 *955:A2 10.71 
*END

*D_NET *85 0.000596423
*CONN
*I *944:A2 I *D gf180mcu_fd_sc_mcu7t5v0__aoi21_1
*I *941:ZN O *D gf180mcu_fd_sc_mcu7t5v0__aoi22_1
*CAP
1 *944:A2 0.000207622
2 *941:ZN 0.000207622
3 *944:A2 *944:A1 3.29477e-05
4 *944:A2 *944:B 2.65444e-06
5 *941:A2 *944:A2 0.000107788
6 *941:B1 *944:A2 3.77882e-05
7 *1017:I *944:A2 0
*RES
1 *941:ZN *944:A2 10.8 
*END

*D_NET *86 0.00387693
*CONN
*I *943:B1 I *D gf180mcu_fd_sc_mcu7t5v0__oai22_1
*I *956:A2 I *D gf180mcu_fd_sc_mcu7t5v0__nand2_1
*I *945:A2 I *D gf180mcu_fd_sc_mcu7t5v0__aoi21_1
*I *942:Z O *D gf180mcu_fd_sc_mcu7t5v0__xor2_1
*CAP
1 *943:B1 0.000178455
2 *956:A2 0
3 *945:A2 1.8566e-05
4 *942:Z 0
5 *86:8 0.000121997
6 *86:6 0.000281886
7 *943:B1 *943:B2 0.000406285
8 *943:B1 *114:12 0.000237101
9 *945:A2 *943:B2 0.00018838
10 *86:8 *943:B2 0.000537442
11 *86:8 *114:12 0.000247389
12 *942:A2 *943:B1 4.85129e-05
13 *974:B *943:B1 0.00020066
14 *974:B *945:A2 0.000168811
15 *974:B *86:8 0.000895771
16 *1002:I *943:B1 3.02306e-05
17 *53:12 *943:B1 0.00015997
18 *54:10 *943:B1 0.00015547
*RES
1 *942:Z *86:6 9 
2 *86:6 *86:8 3.69 
3 *86:8 *945:A2 9.99 
4 *86:8 *956:A2 9 
5 *86:6 *943:B1 12.06 
*END

*D_NET *87 0.0021781
*CONN
*I *944:B I *D gf180mcu_fd_sc_mcu7t5v0__aoi21_1
*I *943:ZN O *D gf180mcu_fd_sc_mcu7t5v0__oai22_1
*CAP
1 *944:B 0.000207101
2 *943:ZN 0.000207101
3 *944:B *941:A1 0.000158489
4 *944:B *941:B2 0.000309065
5 *944:B *943:A1 0.000430534
6 *944:B *102:71 9.97487e-05
7 *941:B1 *944:B 0.000763401
8 *944:A2 *944:B 2.65444e-06
*RES
1 *943:ZN *944:B 13.05 
*END

*D_NET *88 0.00312811
*CONN
*I *947:A1 I *D gf180mcu_fd_sc_mcu7t5v0__oai211_1
*I *944:ZN O *D gf180mcu_fd_sc_mcu7t5v0__aoi21_1
*CAP
1 *947:A1 0.00109185
2 *944:ZN 0.00109185
3 *947:A1 *904:I 1.27919e-05
4 *947:A1 *925:A1 0
5 *947:A1 *944:A1 0.000164228
6 *947:A1 *946:I 0
7 *947:A1 *947:B 9.3226e-06
8 *947:A1 *948:A2 0.000334048
9 *947:A1 *117:93 0.000309984
10 *947:A1 *121:22 1.24166e-05
11 *925:A2 *947:A1 0
12 *941:A2 *947:A1 0.000101624
*RES
1 *944:ZN *947:A1 26.19 
*END

*D_NET *89 0.00108755
*CONN
*I *946:I I *D gf180mcu_fd_sc_mcu7t5v0__clkinv_1
*I *945:ZN O *D gf180mcu_fd_sc_mcu7t5v0__aoi21_1
*CAP
1 *946:I 0.000505405
2 *945:ZN 0.000505405
3 *946:I *945:B 4.6613e-06
4 *947:A1 *946:I 0
5 *3:10 *946:I 7.20821e-05
*RES
1 *945:ZN *946:I 12.33 
*END

*D_NET *90 0.000252925
*CONN
*I *947:A2 I *D gf180mcu_fd_sc_mcu7t5v0__oai211_1
*I *946:ZN O *D gf180mcu_fd_sc_mcu7t5v0__clkinv_1
*CAP
1 *947:A2 0.000126462
2 *946:ZN 0.000126462
*RES
1 *946:ZN *947:A2 9.99 
*END

*D_NET *91 0.00713838
*CONN
*I *948:A2 I *D gf180mcu_fd_sc_mcu7t5v0__aoi21_1
*I *947:ZN O *D gf180mcu_fd_sc_mcu7t5v0__oai211_1
*CAP
1 *948:A2 0.000981054
2 *947:ZN 0.000981054
3 *948:A2 *904:I 0.000266374
4 *948:A2 *947:B 0.00035741
5 *948:A2 *991:CLK 0.000133728
6 *948:A2 *117:99 0.00144879
7 *947:A1 *948:A2 0.000334048
8 *964:A2 *948:A2 0.00102499
9 *964:B *948:A2 0.000830438
10 *968:A2 *948:A2 0.000557206
11 *977:D *948:A2 0.000223284
*RES
1 *947:ZN *948:A2 32.4 
*END

*D_NET *92 0.00740696
*CONN
*I *957:A1 I *D gf180mcu_fd_sc_mcu7t5v0__nor2_1
*I *929:A1 I *D gf180mcu_fd_sc_mcu7t5v0__and2_1
*I *986:Q O *D gf180mcu_fd_sc_mcu7t5v0__dffq_1
*CAP
1 *957:A1 0
2 *929:A1 0.000639317
3 *986:Q 0.00071866
4 *92:12 0.00135798
5 *929:A1 *958:A1 0.000166798
6 *929:A1 *958:C 0.000484943
7 *929:A1 *960:C 0.00041136
8 *929:A1 *961:A1 0.000172572
9 *929:A1 *93:19 0
10 *929:A1 *94:21 0.000286467
11 *929:A1 *120:43 0.000715994
12 *929:A1 *120:45 0.000819488
13 *929:A1 *120:47 0.000548467
14 *92:12 *957:A2 1.0415e-05
15 *92:12 *958:C 9.4913e-06
16 *958:A2 *92:12 7.55765e-06
17 *958:B *92:12 0.000118285
18 *960:B *929:A1 0.000217587
19 *962:B *929:A1 0.000682113
20 *986:D *92:12 3.94638e-05
*RES
1 *986:Q *92:12 18.72 
2 *92:12 *929:A1 23.76 
3 *92:12 *957:A1 4.5 
*END

*D_NET *93 0.00256638
*CONN
*I *931:B2 I *D gf180mcu_fd_sc_mcu7t5v0__aoi22_1
*I *928:A1 I *D gf180mcu_fd_sc_mcu7t5v0__or2_1
*I *959:A1 I *D gf180mcu_fd_sc_mcu7t5v0__nor2_1
*I *987:Q O *D gf180mcu_fd_sc_mcu7t5v0__dffq_1
*CAP
1 *931:B2 3.39467e-05
2 *928:A1 0
3 *959:A1 0.000235036
4 *987:Q 0.000133856
5 *93:19 0.000302721
6 *93:8 0.000637666
7 *931:B2 *928:A2 0.000473735
8 *931:B2 *949:A2 7.58723e-05
9 *931:B2 *94:21 1.23523e-05
10 *93:8 *979:CLK 0.000215887
11 *93:8 *122:121 0
12 *93:19 *949:A2 9.27328e-05
13 *93:19 *961:A1 4.86859e-05
14 *93:19 *94:21 3.08806e-05
15 *929:A1 *93:19 0
16 *931:A1 *931:B2 0.000255088
17 *962:B *959:A1 0
18 *979:D *93:8 1.79237e-05
*RES
1 *987:Q *93:8 10.35 
2 *93:8 *959:A1 10.71 
3 *93:8 *93:19 2.61 
4 *93:19 *928:A1 9 
5 *93:19 *931:B2 10.53 
*END

*D_NET *94 0.00547148
*CONN
*I *927:B I *D gf180mcu_fd_sc_mcu7t5v0__oai21_1
*I *932:A1 I *D gf180mcu_fd_sc_mcu7t5v0__nor3_1
*I *961:A1 I *D gf180mcu_fd_sc_mcu7t5v0__oai21_1
*I *988:Q O *D gf180mcu_fd_sc_mcu7t5v0__dffq_1
*CAP
1 *927:B 0.000375659
2 *932:A1 0
3 *961:A1 0.000172665
4 *988:Q 0.00032366
5 *94:21 0.00102411
6 *94:8 0.00114477
7 *961:A1 *979:CLK 4.45729e-05
8 *961:A1 *122:108 5.97457e-06
9 *961:A1 *122:121 0
10 *94:8 *122:108 0.000230571
11 *94:8 *122:121 0.000169524
12 *94:21 *928:A2 9.39064e-05
13 *94:21 *929:A2 0.000101822
14 *929:A1 *961:A1 0.000172572
15 *929:A1 *94:21 0.000286467
16 *931:B2 *94:21 1.23523e-05
17 *933:A2 *927:B 0
18 *934:A2 *927:B 6.18244e-05
19 *934:A2 *94:21 0.000411307
20 *49:24 *927:B 0
21 *49:32 *927:B 0.000754368
22 *70:8 *927:B 5.78854e-06
23 *77:10 *927:B 0
24 *77:10 *94:21 0
25 *93:19 *961:A1 4.86859e-05
26 *93:19 *94:21 3.08806e-05
*RES
1 *988:Q *94:8 11.79 
2 *94:8 *961:A1 10.98 
3 *94:8 *94:21 8.01 
4 *94:21 *932:A1 9 
5 *94:21 *927:B 12.6 
*END

*D_NET *95 0.00288346
*CONN
*I *902:I I *D gf180mcu_fd_sc_mcu7t5v0__clkinv_1
*I *963:A1 I *D gf180mcu_fd_sc_mcu7t5v0__oai21_1
*I *989:Q O *D gf180mcu_fd_sc_mcu7t5v0__dffq_1
*CAP
1 *902:I 0.000371613
2 *963:A1 0.000166918
3 *989:Q 2.99589e-05
4 *95:8 0.00056849
5 *902:I *952:A1 9.83962e-05
6 *902:I *963:B 0.00039317
7 *902:I *96:23 0
8 *902:I *117:99 7.07604e-05
9 *902:I *120:18 3.08806e-06
10 *902:I *122:33 3.60262e-05
11 *963:A1 *963:B 2.26729e-05
12 *963:A1 *991:CLK 0
13 *963:A1 *120:18 2.16164e-05
14 *95:8 *991:CLK 5.06377e-06
15 *964:B *963:A1 0.000302466
16 *964:B *95:8 1.51153e-05
17 *968:A2 *902:I 0
18 *968:A2 *963:A1 0
19 *968:B *902:I 0.000754995
20 *1002:I *902:I 2.31089e-05
*RES
1 *989:Q *95:8 9.27 
2 *95:8 *963:A1 10.62 
3 *95:8 *902:I 14.4 
*END

*D_NET *96 0.00414093
*CONN
*I *939:A1 I *D gf180mcu_fd_sc_mcu7t5v0__oai222_1
*I *901:I I *D gf180mcu_fd_sc_mcu7t5v0__clkinv_1
*I *965:A1 I *D gf180mcu_fd_sc_mcu7t5v0__oai21_1
*I *990:Q O *D gf180mcu_fd_sc_mcu7t5v0__dffq_1
*CAP
1 *939:A1 0.000473915
2 *901:I 0
3 *965:A1 0.000135655
4 *990:Q 0.000365299
5 *96:23 0.000827952
6 *96:8 0.000854991
7 *939:A1 *939:C2 0.000104683
8 *939:A1 *952:A1 3.2308e-05
9 *939:A1 *97:19 0.000119192
10 *965:A1 *963:B 0.000309984
11 *965:A1 *122:33 0.000354143
12 *96:8 *965:B 1.86887e-06
13 *96:23 *122:33 0.000385445
14 *902:I *96:23 0
15 *934:B2 *96:8 0
16 *934:B2 *96:23 0
17 *937:B1 *939:A1 0.000129542
18 *937:B2 *96:23 1.56779e-05
19 *1002:I *96:8 3.02778e-05
*RES
1 *990:Q *96:8 11.43 
2 *96:8 *965:A1 10.71 
3 *96:8 *96:23 7.02 
4 *96:23 *901:I 4.5 
5 *96:23 *939:A1 17.46 
*END

*D_NET *97 0.00419106
*CONN
*I *939:C2 I *D gf180mcu_fd_sc_mcu7t5v0__oai222_1
*I *967:A1 I *D gf180mcu_fd_sc_mcu7t5v0__nor2_1
*I *941:A1 I *D gf180mcu_fd_sc_mcu7t5v0__aoi22_1
*I *991:Q O *D gf180mcu_fd_sc_mcu7t5v0__dffq_1
*CAP
1 *939:C2 0.000191538
2 *967:A1 0.000131886
3 *941:A1 0.000480018
4 *991:Q 0
5 *97:19 0.000613086
6 *97:4 0.000769681
7 *939:C2 *952:A1 0.000427025
8 *941:A1 *944:A1 9.85004e-05
9 *941:A1 *102:71 0.000165331
10 *967:A1 *952:A1 0.000754995
11 *97:19 *102:66 0
12 *97:19 *102:71 0
13 *937:B1 *939:C2 4.6613e-06
14 *939:A1 *939:C2 0.000104683
15 *939:A1 *97:19 0.000119192
16 *939:B1 *939:C2 2.76913e-05
17 *939:C1 *941:A1 0
18 *939:C1 *97:19 0
19 *941:A2 *941:A1 0.000108767
20 *941:B1 *941:A1 3.55118e-05
21 *944:B *941:A1 0.000158489
22 *1002:I *97:19 0
*RES
1 *991:Q *97:4 4.5 
2 *97:4 *941:A1 8.91 
3 *97:4 *97:19 6.57 
4 *97:19 *967:A1 10.89 
5 *97:19 *939:C2 10.98 
*END

*D_NET *98 0.00857909
*CONN
*I *943:A1 I *D gf180mcu_fd_sc_mcu7t5v0__oai22_1
*I *941:B2 I *D gf180mcu_fd_sc_mcu7t5v0__aoi22_1
*I *970:A1 I *D gf180mcu_fd_sc_mcu7t5v0__aoi22_1
*I *992:Q O *D gf180mcu_fd_sc_mcu7t5v0__dffq_1
*CAP
1 *943:A1 0.000128519
2 *941:B2 5.64802e-05
3 *970:A1 0.000515877
4 *992:Q 0
5 *98:21 0.000832813
6 *98:6 0.00116369
7 *941:B2 *1000:I 8.11163e-05
8 *941:B2 *102:71 0.000114321
9 *943:A1 *1000:I 1.84476e-05
10 *970:A1 *992:CLK 0.0010166
11 *970:A1 *995:CLK 2.4935e-05
12 *970:A1 *105:30 0.000429585
13 *98:21 *925:A1 0.00013035
14 *98:21 *947:B 2.08284e-05
15 *98:21 *995:CLK 1.23523e-05
16 *98:21 *106:12 0.000210747
17 *944:B *941:B2 0.000309065
18 *944:B *943:A1 0.000430534
19 *969:A2 *970:A1 0.000125305
20 *971:A2 *970:A1 0.000145105
21 *1002:I *943:A1 3.50491e-05
22 *56:10 *98:21 0.000791436
23 *56:12 *98:21 0.00104958
24 *56:18 *970:A1 0.000288503
25 *56:18 *98:21 0.000647853
*RES
1 *992:Q *98:6 9 
2 *98:6 *970:A1 14.94 
3 *98:6 *98:21 13.59 
4 *98:21 *941:B2 5.67 
5 *98:21 *943:A1 5.94 
*END

*D_NET *99 0.00899983
*CONN
*I *943:B2 I *D gf180mcu_fd_sc_mcu7t5v0__oai22_1
*I *945:A1 I *D gf180mcu_fd_sc_mcu7t5v0__aoi21_1
*I *972:A1 I *D gf180mcu_fd_sc_mcu7t5v0__aoi22_1
*I *993:Q O *D gf180mcu_fd_sc_mcu7t5v0__dffq_1
*CAP
1 *943:B2 0.000451001
2 *945:A1 4.40785e-05
3 *972:A1 0.00052354
4 *993:Q 0.000148403
5 *99:27 0.00126228
6 *99:8 0.00143914
7 *943:B2 *912:A1 1.06263e-05
8 *943:B2 *956:A1 0.00152075
9 *943:B2 *985:CLK 5.22248e-06
10 *943:B2 *114:6 1.39839e-05
11 *943:B2 *114:12 0.000385445
12 *945:A1 *956:A1 0
13 *972:A1 *105:47 2.496e-05
14 *972:A1 *117:25 0.000204537
15 *99:8 *105:47 1.20136e-05
16 *99:27 *945:B 3.34193e-05
17 *99:27 *993:CLK 2.9098e-05
18 *99:27 *105:47 1.79386e-05
19 *912:A2 *943:B2 0.000127967
20 *942:A2 *943:B2 1.86887e-06
21 *943:B1 *943:B2 0.000406285
22 *945:A2 *943:B2 0.00018838
23 *974:B *943:B2 2.36409e-05
24 *974:B *99:27 1.10821e-05
25 *975:A1 *972:A1 0.000326818
26 *1002:I *943:B2 0.000294421
27 *3:10 *945:A1 5.06031e-06
28 *3:10 *99:27 0.000937637
29 *56:10 *943:B2 1.27919e-05
30 *86:8 *943:B2 0.000537442
*RES
1 *993:Q *99:8 5.4 
2 *99:8 *972:A1 18 
3 *99:8 *99:27 11.52 
4 *99:27 *945:A1 9.27 
5 *99:27 *943:B2 17.28 
*END

*D_NET *100 0.00154565
*CONN
*I *945:B I *D gf180mcu_fd_sc_mcu7t5v0__aoi21_1
*I *974:A1 I *D gf180mcu_fd_sc_mcu7t5v0__oai21_1
*I *994:Q O *D gf180mcu_fd_sc_mcu7t5v0__dffq_1
*CAP
1 *945:B 8.66405e-05
2 *974:A1 5.34947e-05
3 *994:Q 0.00023486
4 *100:10 0.000374995
5 *100:10 *121:8 6.26925e-05
6 *946:I *945:B 4.6613e-06
7 *974:B *945:B 0.000341433
8 *974:B *974:A1 9.92405e-05
9 *974:B *100:10 3.01487e-05
10 *3:10 *945:B 6.53306e-05
11 *3:10 *974:A1 6.3006e-05
12 *3:10 *100:10 9.57249e-05
13 *99:27 *945:B 3.34193e-05
*RES
1 *994:Q *100:10 10.8 
2 *100:10 *974:A1 9.63 
3 *100:10 *945:B 10.26 
*END

*D_NET *101 0.00218229
*CONN
*I *947:B I *D gf180mcu_fd_sc_mcu7t5v0__oai211_1
*I *925:A1 I *D gf180mcu_fd_sc_mcu7t5v0__nand2_1
*I *995:Q O *D gf180mcu_fd_sc_mcu7t5v0__dffq_1
*CAP
1 *947:B 0.000107341
2 *925:A1 0.000293736
3 *995:Q 0
4 *101:6 0.000401077
5 *925:A1 *117:93 0
6 *947:B *904:I 0.000417707
7 *925:A2 *925:A1 0.000444513
8 *947:A1 *925:A1 0
9 *947:A1 *947:B 9.3226e-06
10 *948:A2 *947:B 0.00035741
11 *98:21 *925:A1 0.00013035
12 *98:21 *947:B 2.08284e-05
*RES
1 *995:Q *101:6 9 
2 *101:6 *925:A1 12.06 
3 *101:6 *947:B 10.62 
*END

*D_NET *102 0.00840491
*CONN
*I *1000:I I *D gf180mcu_fd_sc_mcu7t5v0__clkbuf_16
*I *998:I I *D gf180mcu_fd_sc_mcu7t5v0__clkbuf_16
*I *997:I I *D gf180mcu_fd_sc_mcu7t5v0__clkbuf_16
*I *999:I I *D gf180mcu_fd_sc_mcu7t5v0__clkbuf_16
*I *996:Z O *D gf180mcu_fd_sc_mcu7t5v0__clkbuf_16
*CAP
1 *1000:I 5.05773e-05
2 *998:I 8.15456e-05
3 *997:I 0
4 *999:I 8.30191e-05
5 *996:Z 0.000160215
6 *102:71 0.000389746
7 *102:66 0.0004072
8 *102:50 0.000192049
9 *102:43 0.000213973
10 *102:36 0.000209935
11 *102:32 0.000976031
12 *102:27 0.000923518
13 *102:11 0.000795123
14 *102:6 0.000750335
15 *999:I *985:CLK 0.000122689
16 *102:6 *968:A1 9.80802e-05
17 *102:11 *904:I 0.000281393
18 *102:11 *967:A2 0
19 *102:11 *968:A1 0.000117806
20 *102:11 *985:CLK 1.85072e-05
21 *102:11 *106:12 4.83522e-05
22 *102:11 *117:99 3.08083e-05
23 *102:11 *121:22 0.000318962
24 *102:27 *967:A2 3.03288e-05
25 *102:32 *966:A1 6.74708e-06
26 *102:32 *967:A2 1.64193e-05
27 *102:32 *968:A1 2.40933e-06
28 *102:32 *120:8 7.86152e-05
29 *941:A1 *102:71 0.000165331
30 *941:B2 *1000:I 8.11163e-05
31 *941:B2 *102:71 0.000114321
32 *943:A1 *1000:I 1.84476e-05
33 *944:B *102:71 9.97487e-05
34 *966:B *102:32 0.000226744
35 *991:D *102:6 9.80802e-05
36 *991:D *102:11 7.36756e-05
37 *991:D *102:27 8.26145e-05
38 *991:D *102:32 4.14331e-05
39 *1002:I *1000:I 9.87249e-05
40 *1002:I *102:32 0
41 *1002:I *102:66 8.26066e-05
42 *1002:I *102:71 0.000817687
43 *56:10 *102:11 0
44 *97:19 *102:66 0
45 *97:19 *102:71 0
*RES
1 *996:Z *102:6 5.13321 
2 *102:6 *102:11 6.20679 
3 *102:11 *999:I 5.31 
4 *996:Z *102:27 5.13321 
5 *102:27 *102:32 6.20679 
6 *102:32 *102:36 0.81 
7 *102:36 *997:I 4.5 
8 *102:36 *102:43 0.81 
9 *102:43 *102:50 1.08 
10 *102:50 *998:I 5.31 
11 *996:Z *102:66 5.13321 
12 *102:66 *102:71 5.00786 
13 *102:71 *1000:I 5.24893 
*END

*D_NET *103 0.00706849
*CONN
*I *979:CLK I *D gf180mcu_fd_sc_mcu7t5v0__dffq_1
*I *989:CLK I *D gf180mcu_fd_sc_mcu7t5v0__dffq_1
*I *988:CLK I *D gf180mcu_fd_sc_mcu7t5v0__dffq_1
*I *987:CLK I *D gf180mcu_fd_sc_mcu7t5v0__dffq_1
*I *986:CLK I *D gf180mcu_fd_sc_mcu7t5v0__dffq_1
*I *997:Z O *D gf180mcu_fd_sc_mcu7t5v0__clkbuf_16
*CAP
1 *979:CLK 0.000677622
2 *989:CLK 0.000739338
3 *988:CLK 0
4 *987:CLK 0.000216108
5 *986:CLK 0.000118012
6 *997:Z 0.000677622
7 *103:30 0.000837276
8 *103:10 0.000929303
9 *103:4 0.000693122
10 *979:CLK *959:A2 0
11 *979:CLK *120:39 0.000294431
12 *979:CLK *122:121 0
13 *986:CLK *958:C 0
14 *986:CLK *960:C 0
15 *989:CLK *964:A1 0
16 *103:10 *959:A2 3.96404e-05
17 *103:10 *960:C 0
18 *960:A2 *103:10 0
19 *960:A2 *103:30 0
20 *960:B *979:CLK 0
21 *960:B *103:10 6.72097e-05
22 *961:A1 *979:CLK 4.45729e-05
23 *962:A2 *989:CLK 0.000365445
24 *962:A2 *103:10 0.000565118
25 *962:A2 *103:30 0.000444513
26 *979:D *979:CLK 0
27 *987:D *987:CLK 0
28 *987:D *103:10 0.00014327
29 *988:D *979:CLK 0
30 *93:8 *979:CLK 0.000215887
*RES
1 *997:Z *103:4 4.5 
2 *103:4 *103:10 9.18 
3 *103:10 *986:CLK 9.63 
4 *103:10 *987:CLK 10.35 
5 *103:4 *103:30 1.17 
6 *103:30 *988:CLK 4.5 
7 *103:30 *989:CLK 9.63 
8 *997:Z *979:CLK 13.95 
*END

*D_NET *104 0.0102714
*CONN
*I *981:CLK I *D gf180mcu_fd_sc_mcu7t5v0__dffq_1
*I *980:CLK I *D gf180mcu_fd_sc_mcu7t5v0__dffq_1
*I *978:CLK I *D gf180mcu_fd_sc_mcu7t5v0__dffq_1
*I *991:CLK I *D gf180mcu_fd_sc_mcu7t5v0__dffq_1
*I *990:CLK I *D gf180mcu_fd_sc_mcu7t5v0__dffq_1
*I *998:Z O *D gf180mcu_fd_sc_mcu7t5v0__clkbuf_16
*CAP
1 *981:CLK 0.000181145
2 *980:CLK 0
3 *978:CLK 0.000715416
4 *991:CLK 0.000906657
5 *990:CLK 0
6 *998:Z 0.00172046
7 *104:35 0.00132108
8 *104:12 0.00184031
9 *978:CLK *107:8 0.000507502
10 *978:CLK *107:10 0
11 *978:CLK *107:16 0
12 *991:CLK *963:B 1.17652e-05
13 *991:CLK *966:A1 5.15895e-05
14 *991:CLK *117:99 1.80179e-05
15 *991:CLK *122:108 0
16 *104:12 *122:108 0
17 *104:35 *906:A1 0
18 *104:35 *926:A1 3.73774e-06
19 *104:35 *951:B 0
20 *104:35 *107:8 5.20169e-05
21 *927:A2 *104:35 0.000141012
22 *934:A2 *104:35 0.000735552
23 *934:B1 *104:35 1.68677e-06
24 *939:B2 *104:35 0.000151427
25 *948:A2 *991:CLK 0.000133728
26 *951:A2 *104:35 0.000173237
27 *963:A1 *991:CLK 0
28 *964:B *991:CLK 0
29 *966:A2 *991:CLK 0.000507492
30 *966:A2 *104:12 0.000436478
31 *968:A2 *991:CLK 6.92926e-05
32 *980:D *104:35 5.6941e-05
33 *990:D *104:12 0.000171937
34 *49:32 *104:35 2.09122e-05
35 *70:8 *104:35 0.00033693
36 *95:8 *991:CLK 5.06377e-06
*RES
1 *998:Z *104:12 21.06 
2 *104:12 *990:CLK 4.5 
3 *104:12 *991:CLK 11.34 
4 *998:Z *104:35 11.16 
5 *104:35 *978:CLK 19.62 
6 *104:35 *980:CLK 4.5 
7 *998:Z *981:CLK 10.17 
*END

*D_NET *105 0.0093069
*CONN
*I *994:CLK I *D gf180mcu_fd_sc_mcu7t5v0__dffq_1
*I *993:CLK I *D gf180mcu_fd_sc_mcu7t5v0__dffq_1
*I *992:CLK I *D gf180mcu_fd_sc_mcu7t5v0__dffq_1
*I *995:CLK I *D gf180mcu_fd_sc_mcu7t5v0__dffq_1
*I *977:CLK I *D gf180mcu_fd_sc_mcu7t5v0__dffq_1
*I *999:Z O *D gf180mcu_fd_sc_mcu7t5v0__clkbuf_16
*CAP
1 *994:CLK 0
2 *993:CLK 0.000686432
3 *992:CLK 7.69696e-05
4 *995:CLK 0.000140354
5 *977:CLK 0.000527763
6 *999:Z 0.000134462
7 *105:47 0.00159719
8 *105:30 0.000995616
9 *105:8 0.000907087
10 *105:6 0.000381318
11 *977:CLK *913:A1 2.08301e-05
12 *977:CLK *924:A2 0.000496785
13 *977:CLK *121:12 0
14 *977:CLK *121:50 7.10237e-05
15 *995:CLK *121:50 2.72966e-05
16 *105:6 *121:12 0
17 *105:8 *121:12 0
18 *970:A1 *992:CLK 0.0010166
19 *970:A1 *995:CLK 2.4935e-05
20 *970:A1 *105:30 0.000429585
21 *972:A1 *105:47 2.496e-05
22 *994:D *105:47 5.69493e-05
23 *3:10 *993:CLK 0.00014185
24 *56:18 *992:CLK 0.00101917
25 *56:18 *105:30 0.000458327
26 *98:21 *995:CLK 1.23523e-05
27 *99:8 *105:47 1.20136e-05
28 *99:27 *993:CLK 2.9098e-05
29 *99:27 *105:47 1.79386e-05
*RES
1 *999:Z *105:6 5.67 
2 *105:6 *105:8 1.35 
3 *105:8 *977:CLK 8.37 
4 *105:8 *995:CLK 14.67 
5 *105:6 *105:30 5.67 
6 *105:30 *992:CLK 11.79 
7 *105:30 *105:47 14.76 
8 *105:47 *993:CLK 14.31 
9 *105:47 *994:CLK 9 
*END

*D_NET *106 0.0093294
*CONN
*I *982:CLK I *D gf180mcu_fd_sc_mcu7t5v0__dffq_1
*I *984:CLK I *D gf180mcu_fd_sc_mcu7t5v0__dffq_1
*I *983:CLK I *D gf180mcu_fd_sc_mcu7t5v0__dffq_1
*I *985:CLK I *D gf180mcu_fd_sc_mcu7t5v0__dffq_1
*I *1001:I I *D gf180mcu_fd_sc_mcu7t5v0__clkbuf_2
*I *1000:Z O *D gf180mcu_fd_sc_mcu7t5v0__clkbuf_16
*CAP
1 *982:CLK 0.00080708
2 *984:CLK 0.000343905
3 *983:CLK 9.77022e-05
4 *985:CLK 0.000837809
5 *1001:I 0
6 *1000:Z 0.00152481
7 *106:12 0.00111393
8 *982:CLK *122:16 5.97457e-06
9 *982:CLK *122:25 0.000291869
10 *983:CLK *122:16 0.000444513
11 *984:CLK *956:A1 0.000149828
12 *984:CLK *122:16 0.000955358
13 *984:CLK *122:77 9.85004e-05
14 *985:CLK *956:A1 9.72333e-05
15 *106:12 *904:I 0.000846992
16 *943:B2 *985:CLK 5.22248e-06
17 *983:D *982:CLK 7.84068e-05
18 *984:D *984:CLK 0.000302466
19 *985:D *985:CLK 2.08531e-05
20 *999:I *985:CLK 0.000122689
21 *1002:I *985:CLK 0.000166438
22 *1003:I *985:CLK 0.000201304
23 *56:10 *985:CLK 0
24 *56:10 *106:12 0.000538909
25 *98:21 *106:12 0.000210747
26 *102:11 *985:CLK 1.85072e-05
27 *102:11 *106:12 4.83522e-05
*RES
1 *1000:Z *106:12 18.54 
2 *106:12 *1001:I 4.5 
3 *106:12 *985:CLK 19.98 
4 *1000:Z *983:CLK 10.17 
5 *1000:Z *984:CLK 12.96 
6 *1000:Z *982:CLK 15.21 
*END

*D_NET *107 0.00681861
*CONN
*I *906:A1 I *D gf180mcu_fd_sc_mcu7t5v0__and4_1
*I *905:A1 I *D gf180mcu_fd_sc_mcu7t5v0__and3_1
*I *926:A1 I *D gf180mcu_fd_sc_mcu7t5v0__aoi21_1
*I *949:A1 I *D gf180mcu_fd_sc_mcu7t5v0__nand2_1
*I *929:A2 I *D gf180mcu_fd_sc_mcu7t5v0__and2_1
*I *930:A1 I *D gf180mcu_fd_sc_mcu7t5v0__xnor2_1
*I *978:Q O *D gf180mcu_fd_sc_mcu7t5v0__dffq_1
*CAP
1 *906:A1 0.000299567
2 *905:A1 0
3 *926:A1 6.44635e-05
4 *949:A1 7.86236e-05
5 *929:A2 0.000459075
6 *930:A1 0
7 *978:Q 0.000213034
8 *107:62 0.000533412
9 *107:47 0.000533703
10 *107:16 0.000750449
11 *107:10 0.000783662
12 *107:8 0.000862093
13 *906:A1 *906:A2 6.31081e-05
14 *906:A1 *108:28 1.25828e-05
15 *929:A2 *928:A2 2.5673e-05
16 *929:A2 *949:A2 7.46964e-06
17 *949:A1 *949:A2 0.00023506
18 *107:10 *108:17 0.000286966
19 *107:16 *949:A2 1.44195e-05
20 *107:16 *108:8 1.34854e-05
21 *107:16 *108:17 9.02026e-05
22 *107:47 *108:17 9.94441e-06
23 *107:47 *108:28 6.0354e-06
24 *107:62 *926:B 4.41812e-05
25 *107:62 *108:28 1.78063e-05
26 *931:A1 *929:A2 1.50774e-05
27 *931:A2 *929:A2 9.93432e-05
28 *931:B1 *929:A2 3.17412e-05
29 *933:A2 *906:A1 2.40587e-06
30 *934:A2 *929:A2 0.00023711
31 *978:CLK *107:8 0.000507502
32 *978:CLK *107:10 0
33 *978:CLK *107:16 0
34 *980:D *926:A1 0.000218465
35 *980:D *107:47 0.000107785
36 *70:8 *906:A1 0
37 *74:6 *929:A2 5.78854e-06
38 *74:6 *107:16 3.07932e-05
39 *94:21 *929:A2 0.000101822
40 *104:35 *906:A1 0
41 *104:35 *926:A1 3.73774e-06
42 *104:35 *107:8 5.20169e-05
*RES
1 *978:Q *107:8 11.07 
2 *107:8 *107:10 3.87 
3 *107:10 *107:16 6.66 
4 *107:16 *930:A1 4.5 
5 *107:16 *929:A2 16.83 
6 *107:10 *949:A1 9.81 
7 *107:8 *107:47 1.53 
8 *107:47 *926:A1 9.81 
9 *107:47 *107:62 6.3 
10 *107:62 *905:A1 4.5 
11 *107:62 *906:A1 15.66 
*END

*D_NET *108 0.00622711
*CONN
*I *928:A2 I *D gf180mcu_fd_sc_mcu7t5v0__or2_1
*I *906:A2 I *D gf180mcu_fd_sc_mcu7t5v0__and4_1
*I *905:A2 I *D gf180mcu_fd_sc_mcu7t5v0__and3_1
*I *926:A2 I *D gf180mcu_fd_sc_mcu7t5v0__aoi21_1
*I *930:A2 I *D gf180mcu_fd_sc_mcu7t5v0__xnor2_1
*I *979:Q O *D gf180mcu_fd_sc_mcu7t5v0__dffq_1
*CAP
1 *928:A2 0.000231263
2 *906:A2 0.000123626
3 *905:A2 0
4 *926:A2 0
5 *930:A2 0
6 *979:Q 0.000189607
7 *108:28 0.000352463
8 *108:17 0.000901341
9 *108:8 0.00109338
10 *906:A2 *906:A4 2.40933e-06
11 *906:A2 *926:B 7.28823e-05
12 *906:A2 *109:12 0.000182206
13 *108:17 *949:A2 0.000321417
14 *108:28 *926:B 0.000390584
15 *906:A1 *906:A2 6.31081e-05
16 *906:A1 *108:28 1.25828e-05
17 *929:A2 *928:A2 2.5673e-05
18 *931:A1 *928:A2 2.63343e-05
19 *931:A2 *928:A2 4.6613e-06
20 *931:B1 *928:A2 0.000245511
21 *931:B2 *928:A2 0.000473735
22 *933:A2 *906:A2 0.000302466
23 *934:A2 *108:17 0
24 *950:A2 *108:17 9.39061e-05
25 *980:D *108:17 0.000244819
26 *980:D *108:28 9.4836e-05
27 *74:6 *928:A2 9.04462e-05
28 *74:6 *108:8 0.000169515
29 *94:21 *928:A2 9.39064e-05
30 *107:10 *108:17 0.000286966
31 *107:16 *108:8 1.34854e-05
32 *107:16 *108:17 9.02026e-05
33 *107:47 *108:17 9.94441e-06
34 *107:47 *108:28 6.0354e-06
35 *107:62 *108:28 1.78063e-05
*RES
1 *979:Q *108:8 5.94 
2 *108:8 *930:A2 4.5 
3 *108:8 *108:17 11.25 
4 *108:17 *926:A2 9 
5 *108:17 *108:28 2.34 
6 *108:28 *905:A2 9 
7 *108:28 *906:A2 10.62 
8 *108:8 *928:A2 16.2 
*END

*D_NET *109 0.00219523
*CONN
*I *906:A4 I *D gf180mcu_fd_sc_mcu7t5v0__and4_1
*I *905:A3 I *D gf180mcu_fd_sc_mcu7t5v0__and3_1
*I *926:B I *D gf180mcu_fd_sc_mcu7t5v0__aoi21_1
*I *980:Q O *D gf180mcu_fd_sc_mcu7t5v0__dffq_1
*CAP
1 *906:A4 0.000226546
2 *905:A3 0
3 *926:B 7.09225e-05
4 *980:Q 0.000250597
5 *109:12 0.000240288
6 *109:8 0.000646509
7 *906:A4 *906:A3 3.22122e-05
8 *906:A2 *906:A4 2.40933e-06
9 *906:A2 *926:B 7.28823e-05
10 *906:A2 *109:12 0.000182206
11 *933:A2 *906:A4 3.58953e-05
12 *107:62 *926:B 4.41812e-05
13 *108:28 *926:B 0.000390584
*RES
1 *980:Q *109:8 6.12 
2 *109:8 *109:12 6.03 
3 *109:12 *926:B 10.17 
4 *109:12 *905:A3 9 
5 *109:8 *906:A4 6.12 
*END

*D_NET *110 0.00271798
*CONN
*I *933:A1 I *D gf180mcu_fd_sc_mcu7t5v0__xor2_1
*I *906:A3 I *D gf180mcu_fd_sc_mcu7t5v0__and4_1
*I *981:Q O *D gf180mcu_fd_sc_mcu7t5v0__dffq_1
*CAP
1 *933:A1 0
2 *906:A3 0.000258123
3 *981:Q 0.000852262
4 *110:12 0.00111038
5 *906:A4 *906:A3 3.22122e-05
6 *933:A2 *906:A3 0.000464997
7 *50:8 *906:A3 0
8 *50:8 *110:12 0
*RES
1 *981:Q *110:12 19.44 
2 *110:12 *906:A3 7.29 
3 *110:12 *933:A1 4.5 
*END

*D_NET *111 0.00401988
*CONN
*I *909:A2 I *D gf180mcu_fd_sc_mcu7t5v0__nand4_1
*I *908:A2 I *D gf180mcu_fd_sc_mcu7t5v0__nand3_1
*I *907:A1 I *D gf180mcu_fd_sc_mcu7t5v0__nand2_1
*I *935:A1 I *D gf180mcu_fd_sc_mcu7t5v0__xor2_1
*I *982:Q O *D gf180mcu_fd_sc_mcu7t5v0__dffq_1
*CAP
1 *909:A2 0.000212482
2 *908:A2 2.82676e-05
3 *907:A1 0.000119127
4 *935:A1 0.000260255
5 *982:Q 0
6 *111:32 0.000683581
7 *111:17 0.000993229
8 *111:4 0.000691526
9 *907:A1 *938:A1 0
10 *908:A2 *938:A1 2.65444e-06
11 *909:A2 *909:A1 3.46409e-05
12 *111:32 *938:A1 0.000577087
13 *111:32 *112:8 7.84068e-05
14 *909:A4 *909:A2 3.99345e-05
15 *938:A2 *111:32 6.26074e-05
16 *940:A2 *909:A2 6.54299e-05
17 *940:A2 *111:32 3.97987e-05
18 *50:8 *935:A1 5.97457e-06
19 *50:19 *907:A1 3.55118e-05
20 *50:19 *935:A1 4.91692e-05
21 *50:19 *111:17 0
22 *50:27 *907:A1 3.22348e-05
23 *50:27 *111:32 7.96333e-06
*RES
1 *982:Q *111:4 4.5 
2 *111:4 *935:A1 6.48 
3 *111:4 *111:17 3.06 
4 *111:17 *907:A1 5.58 
5 *111:17 *111:32 4.41 
6 *111:32 *908:A2 4.77 
7 *111:32 *909:A2 6.39 
*END

*D_NET *112 0.00279814
*CONN
*I *938:A1 I *D gf180mcu_fd_sc_mcu7t5v0__xor2_1
*I *909:A1 I *D gf180mcu_fd_sc_mcu7t5v0__nand4_1
*I *908:A1 I *D gf180mcu_fd_sc_mcu7t5v0__nand3_1
*I *983:Q O *D gf180mcu_fd_sc_mcu7t5v0__dffq_1
*CAP
1 *938:A1 0.000129051
2 *909:A1 0.000211433
3 *908:A1 0
4 *983:Q 0
5 *112:8 0.000322239
6 *112:4 0.000239857
7 *909:A1 *909:A3 8.53949e-05
8 *907:A1 *938:A1 0
9 *908:A2 *938:A1 2.65444e-06
10 *909:A2 *909:A1 3.46409e-05
11 *909:A4 *909:A1 3.05996e-05
12 *938:A2 *938:A1 3.55118e-05
13 *940:A2 *909:A1 0.000183724
14 *940:A2 *112:8 0.000237866
15 *50:27 *909:A1 5.34014e-05
16 *50:27 *938:A1 0.000139804
17 *50:27 *112:8 0.000436469
18 *111:32 *938:A1 0.000577087
19 *111:32 *112:8 7.84068e-05
*RES
1 *983:Q *112:4 4.5 
2 *112:4 *112:8 1.8 
3 *112:8 *908:A1 4.5 
4 *112:8 *909:A1 15.39 
5 *112:4 *938:A1 6.75 
*END

*D_NET *113 0.00191609
*CONN
*I *940:A1 I *D gf180mcu_fd_sc_mcu7t5v0__xor2_1
*I *909:A3 I *D gf180mcu_fd_sc_mcu7t5v0__nand4_1
*I *984:Q O *D gf180mcu_fd_sc_mcu7t5v0__dffq_1
*CAP
1 *940:A1 0
2 *909:A3 0.000200965
3 *984:Q 0.000509157
4 *113:10 0.000710122
5 *909:A1 *909:A3 8.53949e-05
6 *909:A4 *909:A3 0
7 *940:A2 *113:10 3.01487e-05
8 *53:12 *909:A3 0.000380305
*RES
1 *984:Q *113:10 7.83 
2 *113:10 *909:A3 15.39 
3 *113:10 *940:A1 4.5 
*END

*D_NET *114 0.00203058
*CONN
*I *942:A1 I *D gf180mcu_fd_sc_mcu7t5v0__xor2_1
*I *911:A1 I *D gf180mcu_fd_sc_mcu7t5v0__and2_1
*I *912:A1 I *D gf180mcu_fd_sc_mcu7t5v0__nand2_1
*I *985:Q O *D gf180mcu_fd_sc_mcu7t5v0__dffq_1
*CAP
1 *942:A1 0
2 *911:A1 0
3 *912:A1 0.000173284
4 *985:Q 0.000194433
5 *114:12 0.000199743
6 *114:6 0.000220891
7 *114:12 *956:A1 9.22066e-05
8 *911:A2 *912:A1 7.62825e-05
9 *912:A2 *912:A1 5.82028e-05
10 *942:A2 *114:6 3.98088e-05
11 *943:B1 *114:12 0.000237101
12 *943:B2 *912:A1 1.06263e-05
13 *943:B2 *114:6 1.39839e-05
14 *943:B2 *114:12 0.000385445
15 *974:B *114:12 6.58723e-05
16 *1002:I *912:A1 1.53118e-05
17 *86:8 *114:12 0.000247389
*RES
1 *985:Q *114:6 5.67 
2 *114:6 *114:12 10.53 
3 *114:12 *912:A1 5.76 
4 *114:12 *911:A1 4.5 
5 *114:6 *942:A1 4.5 
*END

*D_NET *115 0.00260646
*CONN
*I *922:A1 I *D gf180mcu_fd_sc_mcu7t5v0__oai21_1
*I *921:A1 I *D gf180mcu_fd_sc_mcu7t5v0__nand2_1
*I *1005:Z O *D gf180mcu_fd_sc_mcu7t5v0__buf_2
*CAP
1 *922:A1 0
2 *921:A1 0.000184987
3 *1005:Z 0.000239187
4 *115:8 0.000424174
5 *921:A1 *918:A1 0.000171762
6 *921:A1 *920:A1 6.30259e-05
7 *921:A1 *124:12 0.000286211
8 *918:A2 *921:A1 6.05852e-05
9 *922:B *921:A1 3.97987e-05
10 *923:A1 *115:8 1.07374e-05
11 *923:A2 *115:8 0
12 *923:A4 *115:8 0.000444513
13 *47:32 *115:8 0.000416553
14 *47:34 *921:A1 1.0415e-05
15 *47:34 *115:8 0.000205482
16 *47:47 *921:A1 6.0354e-06
17 *47:51 *921:A1 2.32355e-05
18 *47:51 *115:8 2.89427e-06
19 *62:8 *921:A1 1.68605e-05
*RES
1 *1005:Z *115:8 7.74 
2 *115:8 *921:A1 15.66 
3 *115:8 *922:A1 4.5 
*END

*D_NET *116 0.00382545
*CONN
*I *913:A1 I *D gf180mcu_fd_sc_mcu7t5v0__nand2_1
*I *924:A1 I *D gf180mcu_fd_sc_mcu7t5v0__nand3_1
*I *1006:Z O *D gf180mcu_fd_sc_mcu7t5v0__buf_2
*CAP
1 *913:A1 0.000436059
2 *924:A1 0
3 *1006:Z 0.00057208
4 *116:8 0.00100814
5 *913:A1 *924:A2 0.00148838
6 *913:A1 *117:74 0
7 *913:A1 *121:22 0
8 *913:A1 *121:50 9.84908e-05
9 *116:8 *924:A2 0.000153283
10 *116:8 *117:74 0
11 *917:A1 *116:8 4.81899e-05
12 *977:CLK *913:A1 2.08301e-05
*RES
1 *1006:Z *116:8 13.05 
2 *116:8 *924:A1 9 
3 *116:8 *913:A1 13.5 
*END

*D_NET *117 0.0303019
*CONN
*I *971:A1 I *D gf180mcu_fd_sc_mcu7t5v0__nor2_1
*I *904:I I *D gf180mcu_fd_sc_mcu7t5v0__clkinv_1
*I *952:A1 I *D gf180mcu_fd_sc_mcu7t5v0__or2_1
*I *968:C I *D gf180mcu_fd_sc_mcu7t5v0__aoi211_1
*I *976:B I *D gf180mcu_fd_sc_mcu7t5v0__aoi21_1
*I *948:B I *D gf180mcu_fd_sc_mcu7t5v0__aoi21_1
*I *960:C I *D gf180mcu_fd_sc_mcu7t5v0__aoi211_1
*I *958:C I *D gf180mcu_fd_sc_mcu7t5v0__aoi211_1
*I *973:A1 I *D gf180mcu_fd_sc_mcu7t5v0__nor2_1
*I *1007:Z O *D gf180mcu_fd_sc_mcu7t5v0__buf_2
*CAP
1 *971:A1 0
2 *904:I 0.000956706
3 *952:A1 0.000682112
4 *968:C 3.59884e-05
5 *976:B 0
6 *948:B 0
7 *960:C 0.000134193
8 *958:C 0.000203552
9 *973:A1 8.71329e-05
10 *1007:Z 0.000127155
11 *117:99 0.000940053
12 *117:93 0.00160348
13 *117:74 0.00112974
14 *117:43 0.00166737
15 *117:35 0.00177161
16 *117:31 0.00141829
17 *117:25 0.00110681
18 *117:8 0.00104971
19 *904:I *122:16 3.92506e-05
20 *952:A1 *122:31 2.73782e-05
21 *952:A1 *122:33 0
22 *958:C *958:A1 0.000202866
23 *973:A1 *972:B2 9.85004e-05
24 *117:31 *903:I 0
25 *117:43 *957:A2 5.60661e-06
26 *117:43 *960:A1 5.78854e-06
27 *117:74 *924:A2 6.52346e-05
28 *117:74 *121:22 0.00019207
29 *117:74 *121:50 8.429e-05
30 *117:93 *121:12 3.01487e-05
31 *117:93 *121:22 0.000523911
32 *117:99 *968:A1 0.000987527
33 *117:99 *121:22 0.000738935
34 *902:I *952:A1 9.83962e-05
35 *902:I *117:99 7.07604e-05
36 *913:A1 *117:74 0
37 *923:A1 *117:43 0
38 *923:A2 *117:43 0
39 *924:A3 *117:35 0.000984845
40 *924:A3 *117:43 0.00011626
41 *925:A1 *117:93 0
42 *929:A1 *958:C 0.000484943
43 *929:A1 *960:C 0.00041136
44 *937:B1 *952:A1 0.000375166
45 *939:A1 *952:A1 3.2308e-05
46 *939:B2 *952:A1 0.00144611
47 *939:C2 *952:A1 0.000427025
48 *947:A1 *904:I 1.27919e-05
49 *947:A1 *117:93 0.000309984
50 *947:B *904:I 0.000417707
51 *948:A1 *117:35 0.000119587
52 *948:A1 *117:43 1.34934e-05
53 *948:A2 *904:I 0.000266374
54 *948:A2 *117:99 0.00144879
55 *953:A2 *952:A1 1.0415e-05
56 *955:A2 *904:I 9.85004e-05
57 *958:B *958:C 0.000246336
58 *960:A2 *117:43 0.000755685
59 *960:B *960:C 1.71254e-05
60 *967:A1 *952:A1 0.000754995
61 *968:A2 *117:99 0.000294421
62 *968:B *952:A1 0.000263461
63 *968:B *117:99 8.56272e-05
64 *971:A2 *117:25 0
65 *972:A1 *117:25 0.000204537
66 *972:A2 *117:25 0
67 *975:A1 *973:A1 0.00019593
68 *975:A1 *117:25 9.49471e-06
69 *976:A1 *117:74 0.00052863
70 *976:A1 *117:93 0.000109323
71 *976:A2 *117:93 0.000317701
72 *986:CLK *958:C 0
73 *986:CLK *960:C 0
74 *991:CLK *117:99 1.80179e-05
75 *992:D *117:25 0.000297076
76 *1002:I *904:I 0
77 *3:10 *117:8 0
78 *3:10 *117:93 0
79 *41:8 *973:A1 0.000240548
80 *46:10 *952:A1 0.00109115
81 *47:8 *117:35 0
82 *53:12 *904:I 6.0354e-06
83 *56:10 *904:I 8.3187e-05
84 *56:12 *904:I 2.70125e-05
85 *84:14 *904:I 0.000526643
86 *92:12 *958:C 9.4913e-06
87 *102:11 *904:I 0.000281393
88 *102:11 *117:99 3.08083e-05
89 *103:10 *960:C 0
90 *106:12 *904:I 0.000846992
91 *116:8 *117:74 0
*RES
1 *1007:Z *117:8 9.81 
2 *117:8 *973:A1 10.17 
3 *117:8 *117:25 10.71 
4 *117:25 *117:31 1.89 
5 *117:31 *117:35 4.32 
6 *117:35 *117:43 13.95 
7 *117:43 *958:C 11.97 
8 *117:43 *960:C 10.17 
9 *117:35 *948:B 4.5 
10 *117:31 *117:74 14.4 
11 *117:74 *976:B 4.5 
12 *117:74 *117:93 14.13 
13 *117:93 *117:99 10.44 
14 *117:99 *968:C 9.27 
15 *117:99 *952:A1 19.35 
16 *117:93 *904:I 24.39 
17 *117:25 *971:A1 4.5 
*END

*D_NET *118 0.00180337
*CONN
*I *1016:I I *D gf180mcu_fd_sc_mcu7t5v0__buf_2
*I *977:Q O *D gf180mcu_fd_sc_mcu7t5v0__dffq_1
*CAP
1 *1016:I 0.000475955
2 *977:Q 0.000475955
3 *1016:I *916:A1 0.00033035
4 *923:A1 *1016:I 3.45835e-05
5 *924:A3 *1016:I 2.63516e-05
6 *968:A2 *1016:I 3.8796e-05
7 *47:8 *1016:I 4.31393e-06
8 *47:14 *1016:I 0.000417061
*RES
1 *977:Q *1016:I 22.41 
*END

*D_NET *119 0.00103637
*CONN
*I *944:A1 I *D gf180mcu_fd_sc_mcu7t5v0__aoi21_1
*I *1017:Z O *D gf180mcu_fd_sc_mcu7t5v0__clkbuf_1
*CAP
1 *944:A1 0.00021558
2 *1017:Z 0.00021558
3 *941:A1 *944:A1 9.85004e-05
4 *941:A2 *944:A1 0.000261701
5 *944:A2 *944:A1 3.29477e-05
6 *947:A1 *944:A1 0.000164228
7 *1017:I *944:A1 4.78286e-05
*RES
1 *1017:Z *944:A1 20.25 
*END

*D_NET *120 0.0138397
*CONN
*I *965:A2 I *D gf180mcu_fd_sc_mcu7t5v0__oai21_1
*I *966:A1 I *D gf180mcu_fd_sc_mcu7t5v0__aoi21_1
*I *963:A2 I *D gf180mcu_fd_sc_mcu7t5v0__oai21_1
*I *961:A2 I *D gf180mcu_fd_sc_mcu7t5v0__oai21_1
*I *962:A1 I *D gf180mcu_fd_sc_mcu7t5v0__aoi21_1
*I *959:A2 I *D gf180mcu_fd_sc_mcu7t5v0__nor2_1
*I *960:A1 I *D gf180mcu_fd_sc_mcu7t5v0__aoi211_1
*I *957:A2 I *D gf180mcu_fd_sc_mcu7t5v0__nor2_1
*I *958:A1 I *D gf180mcu_fd_sc_mcu7t5v0__aoi211_1
*I *964:A1 I *D gf180mcu_fd_sc_mcu7t5v0__aoi21_1
*I *1002:Z O *D gf180mcu_fd_sc_mcu7t5v0__buf_2
*CAP
1 *965:A2 0
2 *966:A1 0.000303285
3 *963:A2 0
4 *961:A2 0
5 *962:A1 0
6 *959:A2 0.000131882
7 *960:A1 7.99181e-05
8 *957:A2 4.79558e-05
9 *958:A1 0.000154517
10 *964:A1 0.000666131
11 *1002:Z 0.000168591
12 *120:80 0.000171487
13 *120:47 0.000426862
14 *120:45 0.000517183
15 *120:43 0.00039165
16 *120:39 0.000802943
17 *120:24 0.00153251
18 *120:18 0.000550003
19 *120:12 0.000712407
20 *120:8 0.000230315
21 *120:12 *963:B 0.000299014
22 *120:18 *963:B 0.000341172
23 *120:18 *122:108 3.55118e-05
24 *120:24 *122:108 0.000425752
25 *120:39 *122:108 0
26 *902:I *120:18 3.08806e-06
27 *929:A1 *958:A1 0.000166798
28 *929:A1 *120:43 0.000715994
29 *929:A1 *120:45 0.000819488
30 *929:A1 *120:47 0.000548467
31 *958:A2 *957:A2 2.40587e-06
32 *958:A2 *958:A1 3.97987e-05
33 *958:C *958:A1 0.000202866
34 *960:A2 *958:A1 0
35 *960:A2 *960:A1 1.39839e-05
36 *960:A2 *120:47 0
37 *960:B *959:A2 0.000223398
38 *962:A2 *959:A2 1.56779e-05
39 *962:A2 *120:80 2.89427e-06
40 *963:A1 *120:18 2.16164e-05
41 *966:A2 *964:A1 0.000458327
42 *966:A2 *966:A1 0.00017692
43 *966:A2 *120:18 6.38539e-05
44 *966:A2 *120:24 0.000458327
45 *966:B *966:A1 0.000405241
46 *966:B *120:12 0.00052094
47 *979:CLK *959:A2 0
48 *979:CLK *120:39 0.000294431
49 *987:D *960:A1 1.44713e-05
50 *988:D *120:80 3.01487e-05
51 *989:D *964:A1 0.000119182
52 *989:CLK *964:A1 0
53 *990:D *966:A1 0.000294431
54 *991:CLK *966:A1 5.15895e-05
55 *1002:I *120:8 3.94491e-05
56 *62:8 *958:A1 0
57 *92:12 *957:A2 1.0415e-05
58 *102:32 *966:A1 6.74708e-06
59 *102:32 *120:8 7.86152e-05
60 *103:10 *959:A2 3.96404e-05
61 *117:43 *957:A2 5.60661e-06
62 *117:43 *960:A1 5.78854e-06
*RES
1 *1002:Z *120:8 5.76 
2 *120:8 *120:12 6.21 
3 *120:12 *120:18 7.74 
4 *120:18 *120:24 6.84 
5 *120:24 *964:A1 14.04 
6 *120:24 *120:39 9.09 
7 *120:39 *120:43 6.39 
8 *120:43 *120:45 2.25 
9 *120:45 *120:47 1.71 
10 *120:47 *958:A1 10.8 
11 *120:47 *957:A2 9.27 
12 *120:45 *960:A1 9.45 
13 *120:43 *120:80 4.77 
14 *120:80 *959:A2 5.67 
15 *120:80 *962:A1 4.5 
16 *120:39 *961:A2 4.5 
17 *120:18 *963:A2 4.5 
18 *120:12 *966:A1 12.69 
19 *120:8 *965:A2 4.5 
*END

*D_NET *121 0.0129078
*CONN
*I *974:A2 I *D gf180mcu_fd_sc_mcu7t5v0__oai21_1
*I *913:A2 I *D gf180mcu_fd_sc_mcu7t5v0__nand2_1
*I *924:A2 I *D gf180mcu_fd_sc_mcu7t5v0__nand3_1
*I *967:A2 I *D gf180mcu_fd_sc_mcu7t5v0__nor2_1
*I *968:A1 I *D gf180mcu_fd_sc_mcu7t5v0__aoi211_1
*I *1003:Z O *D gf180mcu_fd_sc_mcu7t5v0__buf_2
*CAP
1 *974:A2 0
2 *913:A2 0
3 *924:A2 0.000281804
4 *967:A2 0.000587186
5 *968:A1 0.000118695
6 *1003:Z 0.000457516
7 *121:50 0.000415599
8 *121:22 0.00126054
9 *121:12 0.00164744
10 *121:8 0.0014165
11 *913:A1 *924:A2 0.00148838
12 *913:A1 *121:22 0
13 *913:A1 *121:50 9.84908e-05
14 *947:A1 *121:22 1.24166e-05
15 *974:B *121:8 7.55765e-06
16 *974:B *121:12 7.4895e-06
17 *976:A1 *121:22 6.85018e-05
18 *976:A1 *121:50 0.000466026
19 *976:A2 *121:22 0.000143583
20 *977:CLK *924:A2 0.000496785
21 *977:CLK *121:12 0
22 *977:CLK *121:50 7.10237e-05
23 *991:D *967:A2 0
24 *991:D *968:A1 7.77227e-05
25 *995:D *121:12 7.84068e-05
26 *995:CLK *121:50 2.72966e-05
27 *1002:I *967:A2 0.000256708
28 *3:10 *121:12 0
29 *100:10 *121:8 6.26925e-05
30 *102:6 *968:A1 9.80802e-05
31 *102:11 *967:A2 0
32 *102:11 *968:A1 0.000117806
33 *102:11 *121:22 0.000318962
34 *102:27 *967:A2 3.03288e-05
35 *102:32 *967:A2 1.64193e-05
36 *102:32 *968:A1 2.40933e-06
37 *105:6 *121:12 0
38 *105:8 *121:12 0
39 *116:8 *924:A2 0.000153283
40 *117:74 *924:A2 6.52346e-05
41 *117:74 *121:22 0.00019207
42 *117:74 *121:50 8.429e-05
43 *117:93 *121:12 3.01487e-05
44 *117:93 *121:22 0.000523911
45 *117:99 *968:A1 0.000987527
46 *117:99 *121:22 0.000738935
*RES
1 *1003:Z *121:8 7.56 
2 *121:8 *121:12 6.12 
3 *121:12 *121:22 16.47 
4 *121:22 *968:A1 7.11 
5 *121:22 *967:A2 18.18 
6 *121:12 *121:50 10.98 
7 *121:50 *924:A2 17.82 
8 *121:50 *913:A2 4.5 
9 *121:8 *974:A2 4.5 
*END

*D_NET *122 0.0263231
*CONN
*I *950:A1 I *D gf180mcu_fd_sc_mcu7t5v0__nand2_1
*I *949:A2 I *D gf180mcu_fd_sc_mcu7t5v0__nand2_1
*I *961:B I *D gf180mcu_fd_sc_mcu7t5v0__oai21_1
*I *955:A1 I *D gf180mcu_fd_sc_mcu7t5v0__nand2_1
*I *956:A1 I *D gf180mcu_fd_sc_mcu7t5v0__nand2_1
*I *953:A1 I *D gf180mcu_fd_sc_mcu7t5v0__nand2_1
*I *951:B I *D gf180mcu_fd_sc_mcu7t5v0__oai21_1
*I *965:B I *D gf180mcu_fd_sc_mcu7t5v0__oai21_1
*I *963:B I *D gf180mcu_fd_sc_mcu7t5v0__oai21_1
*I *954:A1 I *D gf180mcu_fd_sc_mcu7t5v0__nand2_1
*I *1004:Z O *D gf180mcu_fd_sc_mcu7t5v0__buf_2
*CAP
1 *950:A1 0
2 *949:A2 0.000447649
3 *961:B 5.74829e-05
4 *955:A1 0
5 *956:A1 0.000876029
6 *953:A1 0.000128534
7 *951:B 0.000736732
8 *965:B 3.49391e-05
9 *963:B 0.00110506
10 *954:A1 0
11 *1004:Z 0.000183731
12 *122:121 0.000883207
13 *122:108 0.00136216
14 *122:77 0.000881046
15 *122:33 0.000577834
16 *122:31 0.00157092
17 *122:25 0.00114157
18 *122:16 0.00091229
19 *122:10 0.00061523
20 *902:I *963:B 0.00039317
21 *902:I *122:33 3.60262e-05
22 *904:I *122:16 3.92506e-05
23 *929:A2 *949:A2 7.46964e-06
24 *931:A1 *949:A2 0.000154571
25 *931:B2 *949:A2 7.58723e-05
26 *934:A2 *949:A2 4.27369e-05
27 *934:A2 *951:B 7.96333e-06
28 *934:B1 *951:B 0.000106536
29 *934:B2 *951:B 0.00114605
30 *934:C *951:B 8.91442e-05
31 *936:I *122:25 0.000682386
32 *936:I *122:31 9.20698e-05
33 *937:A2 *951:B 0.000853549
34 *937:B1 *122:31 0
35 *943:B2 *956:A1 0.00152075
36 *945:A1 *956:A1 0
37 *949:A1 *949:A2 0.00023506
38 *950:A2 *949:A2 0.00103881
39 *951:A1 *951:B 0.000186218
40 *951:A2 *951:B 1.19491e-05
41 *952:A1 *122:31 2.73782e-05
42 *952:A1 *122:33 0
43 *953:A2 *122:31 5.78854e-06
44 *955:A2 *122:16 0.000630788
45 *961:A1 *122:108 5.97457e-06
46 *961:A1 *122:121 0
47 *963:A1 *963:B 2.26729e-05
48 *965:A1 *963:B 0.000309984
49 *965:A1 *122:33 0.000354143
50 *966:B *963:B 2.08042e-05
51 *974:B *956:A1 0.000359274
52 *974:B *122:16 1.84476e-05
53 *974:B *122:77 1.07374e-05
54 *979:CLK *122:121 0
55 *982:D *953:A1 1.62696e-05
56 *982:D *122:25 2.84111e-05
57 *982:CLK *122:16 5.97457e-06
58 *982:CLK *122:25 0.000291869
59 *983:D *122:16 5.50498e-05
60 *983:CLK *122:16 0.000444513
61 *984:CLK *956:A1 0.000149828
62 *984:CLK *122:16 0.000955358
63 *984:CLK *122:77 9.85004e-05
64 *985:D *956:A1 6.06287e-05
65 *985:CLK *956:A1 9.72333e-05
66 *991:CLK *963:B 1.17652e-05
67 *991:CLK *122:108 0
68 *1002:I *965:B 9.04462e-05
69 *1003:I *956:A1 0
70 *1004:I *956:A1 0
71 *1004:I *122:10 0.000309993
72 *1017:I *122:16 0
73 *1017:I *122:25 0
74 *46:10 *122:33 8.90578e-05
75 *53:12 *122:10 0
76 *77:21 *951:B 0.00120863
77 *93:8 *122:121 0
78 *93:19 *949:A2 9.27328e-05
79 *94:8 *122:108 0.000230571
80 *94:8 *122:121 0.000169524
81 *96:8 *965:B 1.86887e-06
82 *96:23 *122:33 0.000385445
83 *104:12 *122:108 0
84 *104:35 *951:B 0
85 *107:16 *949:A2 1.44195e-05
86 *108:17 *949:A2 0.000321417
87 *114:12 *956:A1 9.22066e-05
88 *120:12 *963:B 0.000299014
89 *120:18 *963:B 0.000341172
90 *120:18 *122:108 3.55118e-05
91 *120:24 *122:108 0.000425752
92 *120:39 *122:108 0
*RES
1 *1004:Z *122:10 15.21 
2 *122:10 *122:16 5.67 
3 *122:16 *954:A1 4.5 
4 *122:16 *122:25 5.04 
5 *122:25 *122:31 7.92 
6 *122:31 *122:33 3.51 
7 *122:33 *963:B 13.86 
8 *122:33 *965:B 9.27 
9 *122:31 *951:B 18.81 
10 *122:25 *953:A1 5.22 
11 *122:10 *122:77 0.27 
12 *122:77 *956:A1 23.58 
13 *122:77 *955:A1 4.5 
14 *963:B *122:108 11.16 
15 *122:108 *961:B 4.95 
16 *122:108 *122:121 2.97 
17 *122:121 *949:A2 19.8 
18 *122:121 *950:A1 4.5 
*END

*D_NET *123 0.00148388
*CONN
*I *918:A1 I *D gf180mcu_fd_sc_mcu7t5v0__nand2_1
*I *1008:Z O *D gf180mcu_fd_sc_mcu7t5v0__buf_2
*CAP
1 *918:A1 0.000352901
2 *1008:Z 0.000352901
3 *921:A1 *918:A1 0.000171762
4 *922:B *918:A1 0.000106536
5 *1005:I *918:A1 9.07783e-05
6 *1009:I *918:A1 0
7 *47:34 *918:A1 0.000409001
*RES
1 *1008:Z *918:A1 12.24 
*END

*D_NET *124 0.00138117
*CONN
*I *922:A2 I *D gf180mcu_fd_sc_mcu7t5v0__oai21_1
*I *920:A1 I *D gf180mcu_fd_sc_mcu7t5v0__nand2_1
*I *1009:Z O *D gf180mcu_fd_sc_mcu7t5v0__buf_2
*CAP
1 *922:A2 0
2 *920:A1 6.54051e-05
3 *1009:Z 0.000213424
4 *124:12 0.000278829
5 *918:A2 *124:12 0.000265503
6 *921:A1 *920:A1 6.30259e-05
7 *921:A1 *124:12 0.000286211
8 *966:A2 *920:A1 0
9 *47:47 *920:A1 0.000101425
10 *47:47 *124:12 1.85284e-05
11 *47:51 *124:12 8.88191e-05
12 *62:8 *920:A1 0
*RES
1 *1009:Z *124:12 15.66 
2 *124:12 *920:A1 14.31 
3 *124:12 *922:A2 4.5 
*END

*D_NET *125 0.00144234
*CONN
*I *916:A1 I *D gf180mcu_fd_sc_mcu7t5v0__nand2_1
*I *1010:Z O *D gf180mcu_fd_sc_mcu7t5v0__buf_2
*CAP
1 *916:A1 0.00020723
2 *1010:Z 0.00020723
3 *917:A3 *916:A1 0.000109332
4 *923:A1 *916:A1 8.49208e-05
5 *968:A2 *916:A1 0.000503272
6 *1016:I *916:A1 0.00033035
*RES
1 *1010:Z *916:A1 20.79 
*END

*D_NET *126 0.000741821
*CONN
*I *919:A1 I *D gf180mcu_fd_sc_mcu7t5v0__nand2_1
*I *1011:Z O *D gf180mcu_fd_sc_mcu7t5v0__buf_2
*CAP
1 *919:A1 0.000188205
2 *1011:Z 0.000188205
3 *1005:I *919:A1 0.000302466
4 *47:32 *919:A1 6.29439e-05
5 *47:47 *919:A1 0
*RES
1 *1011:Z *919:A1 19.62 
*END

*D_NET *127 0.00184887
*CONN
*I *915:A1 I *D gf180mcu_fd_sc_mcu7t5v0__nand2_1
*I *1012:Z O *D gf180mcu_fd_sc_mcu7t5v0__buf_2
*CAP
1 *915:A1 0.000554495
2 *1012:Z 0.000554495
3 *915:A1 *914:A1 1.29766e-05
4 *917:A2 *915:A1 0.000210501
5 *917:A3 *915:A1 5.66716e-05
6 *917:A4 *915:A1 3.22348e-05
7 *1012:I *915:A1 0.000391985
8 *47:32 *915:A1 3.55118e-05
*RES
1 *1012:Z *915:A1 15.12 
*END

*D_NET *128 0.00127776
*CONN
*I *970:B2 I *D gf180mcu_fd_sc_mcu7t5v0__aoi22_1
*I *914:A2 I *D gf180mcu_fd_sc_mcu7t5v0__nor2_1
*I *1013:Z O *D gf180mcu_fd_sc_mcu7t5v0__buf_2
*CAP
1 *970:B2 3.63031e-05
2 *914:A2 0.000291561
3 *1013:Z 7.47353e-05
4 *128:6 0.000402599
5 *914:A2 *903:I 3.65451e-05
6 *914:A2 *914:A1 0.000212574
7 *970:B2 *914:A1 1.51153e-05
8 *970:B2 *972:B2 0
9 *128:6 *972:B2 0
10 *41:6 *914:A2 0.00015997
11 *41:6 *970:B2 4.83522e-05
*RES
1 *1013:Z *128:6 5.13 
2 *128:6 *914:A2 7.47 
3 *128:6 *970:B2 5.04 
*END

*D_NET *129 0.00221684
*CONN
*I *972:B2 I *D gf180mcu_fd_sc_mcu7t5v0__aoi22_1
*I *914:A1 I *D gf180mcu_fd_sc_mcu7t5v0__nor2_1
*I *1014:Z O *D gf180mcu_fd_sc_mcu7t5v0__buf_2
*CAP
1 *972:B2 0.000220414
2 *914:A1 0.000564421
3 *1014:Z 0
4 *129:4 0.000784836
5 *914:A2 *914:A1 0.000212574
6 *915:A1 *914:A1 1.29766e-05
7 *917:A2 *914:A1 6.53022e-05
8 *970:B2 *914:A1 1.51153e-05
9 *970:B2 *972:B2 0
10 *973:A1 *972:B2 9.85004e-05
11 *1007:I *972:B2 0
12 *1012:I *914:A1 2.65444e-06
13 *1013:I *914:A1 5.20027e-05
14 *1015:I *914:A1 1.31385e-05
15 *41:6 *914:A1 1.06178e-05
16 *41:8 *914:A1 2.32821e-05
17 *41:8 *972:B2 0.000141002
18 *128:6 *972:B2 0
*RES
1 *1014:Z *129:4 4.5 
2 *129:4 *914:A1 9.54 
3 *129:4 *972:B2 6.48 
*END

*D_NET *130 0.000848626
*CONN
*I *903:I I *D gf180mcu_fd_sc_mcu7t5v0__clkinv_1
*I *969:A1 I *D gf180mcu_fd_sc_mcu7t5v0__nor2_1
*I *1015:Z O *D gf180mcu_fd_sc_mcu7t5v0__buf_2
*CAP
1 *903:I 0.000266484
2 *969:A1 0
3 *1015:Z 0.000114262
4 *130:8 0.000380746
5 *914:A2 *903:I 3.65451e-05
6 *969:A2 *903:I 0
7 *971:A2 *903:I 5.05894e-05
8 *117:31 *903:I 0
*RES
1 *1015:Z *130:8 9.81 
2 *130:8 *969:A1 9 
3 *130:8 *903:I 10.98 
*END
