*SPEF "ieee 1481-1999"
*DESIGN "pixel_pwm"
*DATE "16:40:03 Saturday October 03, 2026"
*VENDOR "The OpenROAD Project"
*PROGRAM "OpenROAD"
*VERSION "dcf36133a369abc8f3c5e5738cd4d82e4903c0e0"
*DESIGN_FLOW "NAME_SCOPE LOCAL" "PIN_CAP NONE"
*DIVIDER /
*DELIMITER :
*BUS_DELIMITER []
*T_UNIT 1 NS
*C_UNIT 1 PF
*R_UNIT 1 OHM
*L_UNIT 1 HENRY

*NAME_MAP
*3 clk
*4 duty[0]
*5 duty[1]
*6 duty[2]
*7 duty[3]
*8 duty[4]
*9 duty[5]
*10 duty[6]
*11 duty[7]
*12 duty[8]
*13 enable
*14 pwm
*15 rst
*16 _000_
*17 _001_
*18 _002_
*19 _003_
*20 _004_
*21 _005_
*22 _006_
*23 _007_
*24 _008_
*25 _009_
*26 _010_
*27 _011_
*28 _012_
*29 _013_
*30 _014_
*31 _015_
*32 _016_
*33 _017_
*34 _018_
*35 _019_
*36 _020_
*37 _021_
*38 _022_
*39 _023_
*40 _024_
*41 _025_
*42 _026_
*43 _027_
*44 _028_
*45 _029_
*46 _030_
*47 _031_
*48 _032_
*49 _033_
*50 _034_
*51 _035_
*52 _036_
*53 _037_
*54 _038_
*55 _039_
*56 _040_
*57 _041_
*58 _042_
*59 _043_
*60 _044_
*61 _045_
*62 _046_
*63 _047_
*64 _048_
*65 _049_
*66 _050_
*67 _051_
*68 _052_
*69 _053_
*70 _054_
*71 _055_
*72 _056_
*73 _057_
*74 _058_
*75 _059_
*76 _060_
*77 _061_
*78 _062_
*79 _063_
*80 _064_
*81 _065_
*82 _066_
*83 _067_
*84 _068_
*85 _069_
*86 _070_
*87 _071_
*88 _072_
*89 _073_
*90 _074_
*91 _075_
*92 active_duty\[0\]
*93 active_duty\[1\]
*94 active_duty\[2\]
*95 active_duty\[3\]
*96 active_duty\[4\]
*97 active_duty\[5\]
*98 active_duty\[6\]
*99 active_duty\[7\]
*100 active_duty\[8\]
*101 active_enable
*102 clknet_0_clk
*103 clknet_2_0__leaf_clk
*104 clknet_2_1__leaf_clk
*105 clknet_2_2__leaf_clk
*106 clknet_2_3__leaf_clk
*107 counter\[0\]
*108 counter\[1\]
*109 counter\[2\]
*110 counter\[3\]
*111 counter\[4\]
*112 counter\[5\]
*113 counter\[6\]
*114 counter\[7\]
*115 net1
*116 net10
*117 net11
*118 net12
*119 net13
*120 net14
*121 net15
*122 net16
*123 net2
*124 net3
*125 net4
*126 net5
*127 net6
*128 net7
*129 net8
*130 net9
*131 FILLER_0_104
*132 FILLER_0_138
*133 FILLER_0_172
*134 FILLER_0_2
*135 FILLER_0_206
*136 FILLER_0_240
*137 FILLER_0_274
*138 FILLER_0_290
*139 FILLER_0_294
*140 FILLER_0_36
*141 FILLER_0_70
*142 FILLER_10_104
*143 FILLER_10_107
*144 FILLER_10_123
*145 FILLER_10_127
*146 FILLER_10_129
*147 FILLER_10_141
*148 FILLER_10_173
*149 FILLER_10_177
*150 FILLER_10_241
*151 FILLER_10_247
*152 FILLER_10_279
*153 FILLER_10_31
*154 FILLER_10_37
*155 FILLER_10_45
*156 FILLER_10_52
*157 FILLER_10_68
*158 FILLER_10_70
*159 FILLER_10_88
*160 FILLER_11_10
*161 FILLER_11_102
*162 FILLER_11_106
*163 FILLER_11_108
*164 FILLER_11_117
*165 FILLER_11_133
*166 FILLER_11_137
*167 FILLER_11_139
*168 FILLER_11_142
*169 FILLER_11_2
*170 FILLER_11_206
*171 FILLER_11_212
*172 FILLER_11_276
*173 FILLER_11_28
*174 FILLER_11_282
*175 FILLER_11_290
*176 FILLER_11_294
*177 FILLER_11_30
*178 FILLER_11_41
*179 FILLER_11_51
*180 FILLER_11_55
*181 FILLER_11_64
*182 FILLER_11_68
*183 FILLER_11_72
*184 FILLER_11_76
*185 FILLER_11_86
*186 FILLER_12_103
*187 FILLER_12_126
*188 FILLER_12_140
*189 FILLER_12_172
*190 FILLER_12_174
*191 FILLER_12_177
*192 FILLER_12_2
*193 FILLER_12_241
*194 FILLER_12_247
*195 FILLER_12_279
*196 FILLER_12_34
*197 FILLER_12_87
*198 FILLER_13_10
*199 FILLER_13_142
*200 FILLER_13_206
*201 FILLER_13_21
*202 FILLER_13_212
*203 FILLER_13_276
*204 FILLER_13_282
*205 FILLER_13_290
*206 FILLER_13_294
*207 FILLER_13_37
*208 FILLER_13_39
*209 FILLER_13_69
*210 FILLER_13_72
*211 FILLER_13_74
*212 FILLER_13_83
*213 FILLER_13_87
*214 FILLER_13_89
*215 FILLER_14_101
*216 FILLER_14_107
*217 FILLER_14_115
*218 FILLER_14_154
*219 FILLER_14_170
*220 FILLER_14_174
*221 FILLER_14_177
*222 FILLER_14_2
*223 FILLER_14_22
*224 FILLER_14_241
*225 FILLER_14_247
*226 FILLER_14_279
*227 FILLER_14_30
*228 FILLER_14_34
*229 FILLER_14_37
*230 FILLER_14_6
*231 FILLER_14_69
*232 FILLER_14_71
*233 FILLER_14_8
*234 FILLER_15_128
*235 FILLER_15_136
*236 FILLER_15_142
*237 FILLER_15_206
*238 FILLER_15_212
*239 FILLER_15_24
*240 FILLER_15_276
*241 FILLER_15_282
*242 FILLER_15_290
*243 FILLER_15_294
*244 FILLER_15_56
*245 FILLER_15_64
*246 FILLER_15_68
*247 FILLER_15_72
*248 FILLER_15_96
*249 FILLER_16_103
*250 FILLER_16_107
*251 FILLER_16_171
*252 FILLER_16_177
*253 FILLER_16_18
*254 FILLER_16_241
*255 FILLER_16_247
*256 FILLER_16_279
*257 FILLER_16_34
*258 FILLER_16_37
*259 FILLER_16_53
*260 FILLER_16_61
*261 FILLER_16_70
*262 FILLER_16_86
*263 FILLER_16_95
*264 FILLER_17_10
*265 FILLER_17_117
*266 FILLER_17_121
*267 FILLER_17_127
*268 FILLER_17_135
*269 FILLER_17_139
*270 FILLER_17_154
*271 FILLER_17_186
*272 FILLER_17_202
*273 FILLER_17_212
*274 FILLER_17_26
*275 FILLER_17_276
*276 FILLER_17_282
*277 FILLER_17_290
*278 FILLER_17_294
*279 FILLER_17_34
*280 FILLER_17_38
*281 FILLER_17_40
*282 FILLER_17_72
*283 FILLER_17_86
*284 FILLER_17_88
*285 FILLER_17_99
*286 FILLER_18_122
*287 FILLER_18_153
*288 FILLER_18_169
*289 FILLER_18_173
*290 FILLER_18_177
*291 FILLER_18_20
*292 FILLER_18_24
*293 FILLER_18_241
*294 FILLER_18_247
*295 FILLER_18_26
*296 FILLER_18_279
*297 FILLER_18_37
*298 FILLER_18_45
*299 FILLER_19_104
*300 FILLER_19_112
*301 FILLER_19_116
*302 FILLER_19_118
*303 FILLER_19_123
*304 FILLER_19_139
*305 FILLER_19_142
*306 FILLER_19_2
*307 FILLER_19_206
*308 FILLER_19_212
*309 FILLER_19_276
*310 FILLER_19_282
*311 FILLER_19_290
*312 FILLER_19_294
*313 FILLER_19_46
*314 FILLER_19_62
*315 FILLER_19_72
*316 FILLER_19_74
*317 FILLER_1_136
*318 FILLER_1_142
*319 FILLER_1_2
*320 FILLER_1_206
*321 FILLER_1_212
*322 FILLER_1_276
*323 FILLER_1_282
*324 FILLER_1_290
*325 FILLER_1_294
*326 FILLER_1_66
*327 FILLER_1_72
*328 FILLER_20_10
*329 FILLER_20_101
*330 FILLER_20_107
*331 FILLER_20_139
*332 FILLER_20_141
*333 FILLER_20_147
*334 FILLER_20_163
*335 FILLER_20_171
*336 FILLER_20_177
*337 FILLER_20_18
*338 FILLER_20_22
*339 FILLER_20_24
*340 FILLER_20_241
*341 FILLER_20_247
*342 FILLER_20_279
*343 FILLER_20_32
*344 FILLER_20_34
*345 FILLER_20_37
*346 FILLER_21_106
*347 FILLER_21_114
*348 FILLER_21_118
*349 FILLER_21_124
*350 FILLER_21_154
*351 FILLER_21_186
*352 FILLER_21_20
*353 FILLER_21_202
*354 FILLER_21_212
*355 FILLER_21_276
*356 FILLER_21_282
*357 FILLER_21_290
*358 FILLER_21_294
*359 FILLER_21_36
*360 FILLER_21_40
*361 FILLER_21_42
*362 FILLER_21_48
*363 FILLER_21_52
*364 FILLER_21_61
*365 FILLER_21_68
*366 FILLER_21_72
*367 FILLER_21_88
*368 FILLER_21_96
*369 FILLER_22_113
*370 FILLER_22_146
*371 FILLER_22_16
*372 FILLER_22_162
*373 FILLER_22_170
*374 FILLER_22_174
*375 FILLER_22_177
*376 FILLER_22_20
*377 FILLER_22_241
*378 FILLER_22_247
*379 FILLER_22_27
*380 FILLER_22_279
*381 FILLER_22_37
*382 FILLER_22_45
*383 FILLER_22_47
*384 FILLER_22_77
*385 FILLER_22_93
*386 FILLER_22_95
*387 FILLER_23_10
*388 FILLER_23_149
*389 FILLER_23_181
*390 FILLER_23_197
*391 FILLER_23_205
*392 FILLER_23_209
*393 FILLER_23_212
*394 FILLER_23_276
*395 FILLER_23_282
*396 FILLER_23_290
*397 FILLER_23_294
*398 FILLER_23_49
*399 FILLER_23_65
*400 FILLER_24_10
*401 FILLER_24_103
*402 FILLER_24_107
*403 FILLER_24_119
*404 FILLER_24_156
*405 FILLER_24_172
*406 FILLER_24_174
*407 FILLER_24_177
*408 FILLER_24_241
*409 FILLER_24_247
*410 FILLER_24_26
*411 FILLER_24_279
*412 FILLER_24_34
*413 FILLER_24_37
*414 FILLER_24_39
*415 FILLER_24_90
*416 FILLER_24_92
*417 FILLER_25_101
*418 FILLER_25_130
*419 FILLER_25_138
*420 FILLER_25_142
*421 FILLER_25_19
*422 FILLER_25_206
*423 FILLER_25_212
*424 FILLER_25_276
*425 FILLER_25_282
*426 FILLER_25_290
*427 FILLER_25_294
*428 FILLER_25_51
*429 FILLER_25_67
*430 FILLER_25_69
*431 FILLER_25_72
*432 FILLER_25_88
*433 FILLER_25_95
*434 FILLER_26_107
*435 FILLER_26_115
*436 FILLER_26_146
*437 FILLER_26_16
*438 FILLER_26_162
*439 FILLER_26_170
*440 FILLER_26_174
*441 FILLER_26_177
*442 FILLER_26_2
*443 FILLER_26_241
*444 FILLER_26_247
*445 FILLER_26_279
*446 FILLER_26_32
*447 FILLER_26_34
*448 FILLER_26_43
*449 FILLER_26_51
*450 FILLER_26_61
*451 FILLER_26_71
*452 FILLER_26_78
*453 FILLER_26_82
*454 FILLER_26_84
*455 FILLER_27_101
*456 FILLER_27_133
*457 FILLER_27_137
*458 FILLER_27_139
*459 FILLER_27_142
*460 FILLER_27_2
*461 FILLER_27_206
*462 FILLER_27_212
*463 FILLER_27_276
*464 FILLER_27_282
*465 FILLER_27_290
*466 FILLER_27_294
*467 FILLER_27_32
*468 FILLER_27_62
*469 FILLER_28_102
*470 FILLER_28_104
*471 FILLER_28_107
*472 FILLER_28_171
*473 FILLER_28_177
*474 FILLER_28_2
*475 FILLER_28_241
*476 FILLER_28_247
*477 FILLER_28_279
*478 FILLER_28_34
*479 FILLER_28_37
*480 FILLER_28_53
*481 FILLER_28_62
*482 FILLER_28_94
*483 FILLER_29_136
*484 FILLER_29_142
*485 FILLER_29_2
*486 FILLER_29_206
*487 FILLER_29_212
*488 FILLER_29_276
*489 FILLER_29_282
*490 FILLER_29_290
*491 FILLER_29_294
*492 FILLER_29_66
*493 FILLER_29_72
*494 FILLER_2_101
*495 FILLER_2_107
*496 FILLER_2_171
*497 FILLER_2_177
*498 FILLER_2_2
*499 FILLER_2_241
*500 FILLER_2_247
*501 FILLER_2_279
*502 FILLER_2_34
*503 FILLER_2_37
*504 FILLER_30_101
*505 FILLER_30_107
*506 FILLER_30_171
*507 FILLER_30_177
*508 FILLER_30_2
*509 FILLER_30_241
*510 FILLER_30_247
*511 FILLER_30_279
*512 FILLER_30_34
*513 FILLER_30_37
*514 FILLER_31_136
*515 FILLER_31_142
*516 FILLER_31_2
*517 FILLER_31_206
*518 FILLER_31_212
*519 FILLER_31_276
*520 FILLER_31_282
*521 FILLER_31_290
*522 FILLER_31_294
*523 FILLER_31_66
*524 FILLER_31_72
*525 FILLER_32_101
*526 FILLER_32_107
*527 FILLER_32_171
*528 FILLER_32_177
*529 FILLER_32_2
*530 FILLER_32_241
*531 FILLER_32_247
*532 FILLER_32_279
*533 FILLER_32_34
*534 FILLER_32_37
*535 FILLER_33_136
*536 FILLER_33_142
*537 FILLER_33_2
*538 FILLER_33_206
*539 FILLER_33_212
*540 FILLER_33_276
*541 FILLER_33_282
*542 FILLER_33_290
*543 FILLER_33_294
*544 FILLER_33_66
*545 FILLER_33_72
*546 FILLER_34_101
*547 FILLER_34_107
*548 FILLER_34_171
*549 FILLER_34_177
*550 FILLER_34_2
*551 FILLER_34_241
*552 FILLER_34_247
*553 FILLER_34_279
*554 FILLER_34_34
*555 FILLER_34_37
*556 FILLER_35_136
*557 FILLER_35_142
*558 FILLER_35_2
*559 FILLER_35_206
*560 FILLER_35_212
*561 FILLER_35_276
*562 FILLER_35_282
*563 FILLER_35_290
*564 FILLER_35_294
*565 FILLER_35_66
*566 FILLER_35_72
*567 FILLER_36_104
*568 FILLER_36_138
*569 FILLER_36_172
*570 FILLER_36_2
*571 FILLER_36_206
*572 FILLER_36_240
*573 FILLER_36_274
*574 FILLER_36_290
*575 FILLER_36_294
*576 FILLER_36_36
*577 FILLER_36_70
*578 FILLER_3_136
*579 FILLER_3_142
*580 FILLER_3_2
*581 FILLER_3_206
*582 FILLER_3_212
*583 FILLER_3_276
*584 FILLER_3_282
*585 FILLER_3_290
*586 FILLER_3_294
*587 FILLER_3_66
*588 FILLER_3_72
*589 FILLER_4_101
*590 FILLER_4_107
*591 FILLER_4_171
*592 FILLER_4_177
*593 FILLER_4_2
*594 FILLER_4_241
*595 FILLER_4_247
*596 FILLER_4_279
*597 FILLER_4_34
*598 FILLER_4_37
*599 FILLER_5_136
*600 FILLER_5_142
*601 FILLER_5_2
*602 FILLER_5_206
*603 FILLER_5_212
*604 FILLER_5_276
*605 FILLER_5_282
*606 FILLER_5_290
*607 FILLER_5_294
*608 FILLER_5_66
*609 FILLER_5_72
*610 FILLER_6_101
*611 FILLER_6_107
*612 FILLER_6_171
*613 FILLER_6_177
*614 FILLER_6_2
*615 FILLER_6_241
*616 FILLER_6_247
*617 FILLER_6_279
*618 FILLER_6_34
*619 FILLER_6_37
*620 FILLER_7_116
*621 FILLER_7_132
*622 FILLER_7_142
*623 FILLER_7_2
*624 FILLER_7_206
*625 FILLER_7_212
*626 FILLER_7_276
*627 FILLER_7_282
*628 FILLER_7_290
*629 FILLER_7_294
*630 FILLER_7_66
*631 FILLER_7_72
*632 FILLER_7_80
*633 FILLER_7_84
*634 FILLER_7_86
*635 FILLER_8_104
*636 FILLER_8_107
*637 FILLER_8_111
*638 FILLER_8_142
*639 FILLER_8_174
*640 FILLER_8_177
*641 FILLER_8_2
*642 FILLER_8_241
*643 FILLER_8_247
*644 FILLER_8_279
*645 FILLER_8_34
*646 FILLER_8_37
*647 FILLER_8_53
*648 FILLER_8_84
*649 FILLER_8_88
*650 FILLER_8_90
*651 FILLER_8_96
*652 FILLER_9_107
*653 FILLER_9_109
*654 FILLER_9_136
*655 FILLER_9_142
*656 FILLER_9_18
*657 FILLER_9_2
*658 FILLER_9_206
*659 FILLER_9_212
*660 FILLER_9_26
*661 FILLER_9_276
*662 FILLER_9_282
*663 FILLER_9_290
*664 FILLER_9_294
*665 FILLER_9_30
*666 FILLER_9_60
*667 FILLER_9_64
*668 FILLER_9_72
*669 FILLER_9_76
*670 FILLER_9_91
*671 PHY_EDGE_ROW_0_Left_37
*672 PHY_EDGE_ROW_0_Right_0
*673 PHY_EDGE_ROW_10_Left_47
*674 PHY_EDGE_ROW_10_Right_10
*675 PHY_EDGE_ROW_11_Left_48
*676 PHY_EDGE_ROW_11_Right_11
*677 PHY_EDGE_ROW_12_Left_49
*678 PHY_EDGE_ROW_12_Right_12
*679 PHY_EDGE_ROW_13_Left_50
*680 PHY_EDGE_ROW_13_Right_13
*681 PHY_EDGE_ROW_14_Left_51
*682 PHY_EDGE_ROW_14_Right_14
*683 PHY_EDGE_ROW_15_Left_52
*684 PHY_EDGE_ROW_15_Right_15
*685 PHY_EDGE_ROW_16_Left_53
*686 PHY_EDGE_ROW_16_Right_16
*687 PHY_EDGE_ROW_17_Left_54
*688 PHY_EDGE_ROW_17_Right_17
*689 PHY_EDGE_ROW_18_Left_55
*690 PHY_EDGE_ROW_18_Right_18
*691 PHY_EDGE_ROW_19_Left_56
*692 PHY_EDGE_ROW_19_Right_19
*693 PHY_EDGE_ROW_1_Left_38
*694 PHY_EDGE_ROW_1_Right_1
*695 PHY_EDGE_ROW_20_Left_57
*696 PHY_EDGE_ROW_20_Right_20
*697 PHY_EDGE_ROW_21_Left_58
*698 PHY_EDGE_ROW_21_Right_21
*699 PHY_EDGE_ROW_22_Left_59
*700 PHY_EDGE_ROW_22_Right_22
*701 PHY_EDGE_ROW_23_Left_60
*702 PHY_EDGE_ROW_23_Right_23
*703 PHY_EDGE_ROW_24_Left_61
*704 PHY_EDGE_ROW_24_Right_24
*705 PHY_EDGE_ROW_25_Left_62
*706 PHY_EDGE_ROW_25_Right_25
*707 PHY_EDGE_ROW_26_Left_63
*708 PHY_EDGE_ROW_26_Right_26
*709 PHY_EDGE_ROW_27_Left_64
*710 PHY_EDGE_ROW_27_Right_27
*711 PHY_EDGE_ROW_28_Left_65
*712 PHY_EDGE_ROW_28_Right_28
*713 PHY_EDGE_ROW_29_Left_66
*714 PHY_EDGE_ROW_29_Right_29
*715 PHY_EDGE_ROW_2_Left_39
*716 PHY_EDGE_ROW_2_Right_2
*717 PHY_EDGE_ROW_30_Left_67
*718 PHY_EDGE_ROW_30_Right_30
*719 PHY_EDGE_ROW_31_Left_68
*720 PHY_EDGE_ROW_31_Right_31
*721 PHY_EDGE_ROW_32_Left_69
*722 PHY_EDGE_ROW_32_Right_32
*723 PHY_EDGE_ROW_33_Left_70
*724 PHY_EDGE_ROW_33_Right_33
*725 PHY_EDGE_ROW_34_Left_71
*726 PHY_EDGE_ROW_34_Right_34
*727 PHY_EDGE_ROW_35_Left_72
*728 PHY_EDGE_ROW_35_Right_35
*729 PHY_EDGE_ROW_36_Left_73
*730 PHY_EDGE_ROW_36_Right_36
*731 PHY_EDGE_ROW_3_Left_40
*732 PHY_EDGE_ROW_3_Right_3
*733 PHY_EDGE_ROW_4_Left_41
*734 PHY_EDGE_ROW_4_Right_4
*735 PHY_EDGE_ROW_5_Left_42
*736 PHY_EDGE_ROW_5_Right_5
*737 PHY_EDGE_ROW_6_Left_43
*738 PHY_EDGE_ROW_6_Right_6
*739 PHY_EDGE_ROW_7_Left_44
*740 PHY_EDGE_ROW_7_Right_7
*741 PHY_EDGE_ROW_8_Left_45
*742 PHY_EDGE_ROW_8_Right_8
*743 PHY_EDGE_ROW_9_Left_46
*744 PHY_EDGE_ROW_9_Right_9
*745 TAP_TAPCELL_ROW_0_74
*746 TAP_TAPCELL_ROW_0_75
*747 TAP_TAPCELL_ROW_0_76
*748 TAP_TAPCELL_ROW_0_77
*749 TAP_TAPCELL_ROW_0_78
*750 TAP_TAPCELL_ROW_0_79
*751 TAP_TAPCELL_ROW_0_80
*752 TAP_TAPCELL_ROW_0_81
*753 TAP_TAPCELL_ROW_10_118
*754 TAP_TAPCELL_ROW_10_119
*755 TAP_TAPCELL_ROW_10_120
*756 TAP_TAPCELL_ROW_10_121
*757 TAP_TAPCELL_ROW_11_122
*758 TAP_TAPCELL_ROW_11_123
*759 TAP_TAPCELL_ROW_11_124
*760 TAP_TAPCELL_ROW_11_125
*761 TAP_TAPCELL_ROW_12_126
*762 TAP_TAPCELL_ROW_12_127
*763 TAP_TAPCELL_ROW_12_128
*764 TAP_TAPCELL_ROW_12_129
*765 TAP_TAPCELL_ROW_13_130
*766 TAP_TAPCELL_ROW_13_131
*767 TAP_TAPCELL_ROW_13_132
*768 TAP_TAPCELL_ROW_13_133
*769 TAP_TAPCELL_ROW_14_134
*770 TAP_TAPCELL_ROW_14_135
*771 TAP_TAPCELL_ROW_14_136
*772 TAP_TAPCELL_ROW_14_137
*773 TAP_TAPCELL_ROW_15_138
*774 TAP_TAPCELL_ROW_15_139
*775 TAP_TAPCELL_ROW_15_140
*776 TAP_TAPCELL_ROW_15_141
*777 TAP_TAPCELL_ROW_16_142
*778 TAP_TAPCELL_ROW_16_143
*779 TAP_TAPCELL_ROW_16_144
*780 TAP_TAPCELL_ROW_16_145
*781 TAP_TAPCELL_ROW_17_146
*782 TAP_TAPCELL_ROW_17_147
*783 TAP_TAPCELL_ROW_17_148
*784 TAP_TAPCELL_ROW_17_149
*785 TAP_TAPCELL_ROW_18_150
*786 TAP_TAPCELL_ROW_18_151
*787 TAP_TAPCELL_ROW_18_152
*788 TAP_TAPCELL_ROW_18_153
*789 TAP_TAPCELL_ROW_19_154
*790 TAP_TAPCELL_ROW_19_155
*791 TAP_TAPCELL_ROW_19_156
*792 TAP_TAPCELL_ROW_19_157
*793 TAP_TAPCELL_ROW_1_82
*794 TAP_TAPCELL_ROW_1_83
*795 TAP_TAPCELL_ROW_1_84
*796 TAP_TAPCELL_ROW_1_85
*797 TAP_TAPCELL_ROW_20_158
*798 TAP_TAPCELL_ROW_20_159
*799 TAP_TAPCELL_ROW_20_160
*800 TAP_TAPCELL_ROW_20_161
*801 TAP_TAPCELL_ROW_21_162
*802 TAP_TAPCELL_ROW_21_163
*803 TAP_TAPCELL_ROW_21_164
*804 TAP_TAPCELL_ROW_21_165
*805 TAP_TAPCELL_ROW_22_166
*806 TAP_TAPCELL_ROW_22_167
*807 TAP_TAPCELL_ROW_22_168
*808 TAP_TAPCELL_ROW_22_169
*809 TAP_TAPCELL_ROW_23_170
*810 TAP_TAPCELL_ROW_23_171
*811 TAP_TAPCELL_ROW_23_172
*812 TAP_TAPCELL_ROW_23_173
*813 TAP_TAPCELL_ROW_24_174
*814 TAP_TAPCELL_ROW_24_175
*815 TAP_TAPCELL_ROW_24_176
*816 TAP_TAPCELL_ROW_24_177
*817 TAP_TAPCELL_ROW_25_178
*818 TAP_TAPCELL_ROW_25_179
*819 TAP_TAPCELL_ROW_25_180
*820 TAP_TAPCELL_ROW_25_181
*821 TAP_TAPCELL_ROW_26_182
*822 TAP_TAPCELL_ROW_26_183
*823 TAP_TAPCELL_ROW_26_184
*824 TAP_TAPCELL_ROW_26_185
*825 TAP_TAPCELL_ROW_27_186
*826 TAP_TAPCELL_ROW_27_187
*827 TAP_TAPCELL_ROW_27_188
*828 TAP_TAPCELL_ROW_27_189
*829 TAP_TAPCELL_ROW_28_190
*830 TAP_TAPCELL_ROW_28_191
*831 TAP_TAPCELL_ROW_28_192
*832 TAP_TAPCELL_ROW_28_193
*833 TAP_TAPCELL_ROW_29_194
*834 TAP_TAPCELL_ROW_29_195
*835 TAP_TAPCELL_ROW_29_196
*836 TAP_TAPCELL_ROW_29_197
*837 TAP_TAPCELL_ROW_2_86
*838 TAP_TAPCELL_ROW_2_87
*839 TAP_TAPCELL_ROW_2_88
*840 TAP_TAPCELL_ROW_2_89
*841 TAP_TAPCELL_ROW_30_198
*842 TAP_TAPCELL_ROW_30_199
*843 TAP_TAPCELL_ROW_30_200
*844 TAP_TAPCELL_ROW_30_201
*845 TAP_TAPCELL_ROW_31_202
*846 TAP_TAPCELL_ROW_31_203
*847 TAP_TAPCELL_ROW_31_204
*848 TAP_TAPCELL_ROW_31_205
*849 TAP_TAPCELL_ROW_32_206
*850 TAP_TAPCELL_ROW_32_207
*851 TAP_TAPCELL_ROW_32_208
*852 TAP_TAPCELL_ROW_32_209
*853 TAP_TAPCELL_ROW_33_210
*854 TAP_TAPCELL_ROW_33_211
*855 TAP_TAPCELL_ROW_33_212
*856 TAP_TAPCELL_ROW_33_213
*857 TAP_TAPCELL_ROW_34_214
*858 TAP_TAPCELL_ROW_34_215
*859 TAP_TAPCELL_ROW_34_216
*860 TAP_TAPCELL_ROW_34_217
*861 TAP_TAPCELL_ROW_35_218
*862 TAP_TAPCELL_ROW_35_219
*863 TAP_TAPCELL_ROW_35_220
*864 TAP_TAPCELL_ROW_35_221
*865 TAP_TAPCELL_ROW_36_222
*866 TAP_TAPCELL_ROW_36_223
*867 TAP_TAPCELL_ROW_36_224
*868 TAP_TAPCELL_ROW_36_225
*869 TAP_TAPCELL_ROW_36_226
*870 TAP_TAPCELL_ROW_36_227
*871 TAP_TAPCELL_ROW_36_228
*872 TAP_TAPCELL_ROW_36_229
*873 TAP_TAPCELL_ROW_3_90
*874 TAP_TAPCELL_ROW_3_91
*875 TAP_TAPCELL_ROW_3_92
*876 TAP_TAPCELL_ROW_3_93
*877 TAP_TAPCELL_ROW_4_94
*878 TAP_TAPCELL_ROW_4_95
*879 TAP_TAPCELL_ROW_4_96
*880 TAP_TAPCELL_ROW_4_97
*881 TAP_TAPCELL_ROW_5_100
*882 TAP_TAPCELL_ROW_5_101
*883 TAP_TAPCELL_ROW_5_98
*884 TAP_TAPCELL_ROW_5_99
*885 TAP_TAPCELL_ROW_6_102
*886 TAP_TAPCELL_ROW_6_103
*887 TAP_TAPCELL_ROW_6_104
*888 TAP_TAPCELL_ROW_6_105
*889 TAP_TAPCELL_ROW_7_106
*890 TAP_TAPCELL_ROW_7_107
*891 TAP_TAPCELL_ROW_7_108
*892 TAP_TAPCELL_ROW_7_109
*893 TAP_TAPCELL_ROW_8_110
*894 TAP_TAPCELL_ROW_8_111
*895 TAP_TAPCELL_ROW_8_112
*896 TAP_TAPCELL_ROW_8_113
*897 TAP_TAPCELL_ROW_9_114
*898 TAP_TAPCELL_ROW_9_115
*899 TAP_TAPCELL_ROW_9_116
*900 TAP_TAPCELL_ROW_9_117
*901 _076_
*902 _077_
*903 _078_
*904 _079_
*905 _080_
*906 _081_
*907 _082_
*908 _083_
*909 _084_
*910 _085_
*911 _086_
*912 _087_
*913 _088_
*914 _089_
*915 _090_
*916 _091_
*917 _092_
*918 _093_
*919 _094_
*920 _095_
*921 _096_
*922 _097_
*923 _098_
*924 _099_
*925 _100_
*926 _101_
*927 _102_
*928 _103_
*929 _104_
*930 _105_
*931 _106_
*932 _107_
*933 _108_
*934 _109_
*935 _110_
*936 _111_
*937 _112_
*938 _113_
*939 _114_
*940 _115_
*941 _116_
*942 _117_
*943 _118_
*944 _119_
*945 _120_
*946 _121_
*947 _122_
*948 _123_
*949 _124_
*950 _125_
*951 _126_
*952 _127_
*953 _128_
*954 _129_
*955 _130_
*956 _131_
*957 _132_
*958 _133_
*959 _134_
*960 _135_
*961 _136_
*962 _137_
*963 _138_
*964 _139_
*965 _140_
*966 _141_
*967 _142_
*968 _143_
*969 _144_
*970 _145_
*971 _146_
*972 _147_
*973 _148_
*974 _149_
*975 _150_
*976 _151_
*977 _152_
*978 _153_
*979 _154_
*980 _155_
*981 _156_
*982 _157_
*983 _158_
*984 _159_
*985 _160_
*986 _161_
*987 _162_
*988 _163_
*989 _164_
*990 _165_
*991 _166_
*992 _167_
*993 _168_
*994 _169_
*995 _170_
*996 clkbuf_0_clk
*997 clkbuf_2_0__f_clk
*998 clkbuf_2_1__f_clk
*999 clkbuf_2_2__f_clk
*1000 clkbuf_2_3__f_clk
*1001 clkload0
*1002 fanout14
*1003 fanout15
*1004 fanout16
*1005 input1
*1006 input10
*1007 input11
*1008 input2
*1009 input3
*1010 input4
*1011 input5
*1012 input6
*1013 input7
*1014 input8
*1015 input9
*1016 output12
*1017 wire13

*PORTS
clk I
duty[0] I
duty[1] I
duty[2] I
duty[3] I
duty[4] I
duty[5] I
duty[6] I
duty[7] I
duty[8] I
enable I
pwm O
rst I

*D_NET *3 0.00734901
*CONN
*P clk I
*I *996:I I *D gf180mcu_fd_sc_mcu7t5v0__clkbuf_16
*CAP
1 clk 0.00229441
2 *996:I 0.00013021
3 *3:10 0.00242462
4 *3:10 *925:A2 0.000232309
5 *3:10 *945:A1 4.97386e-06
6 *3:10 *945:B 6.29175e-05
7 *3:10 *946:I 7.19603e-05
8 *3:10 *974:A1 6.05288e-05
9 *3:10 *974:B 6.24061e-06
10 *3:10 *975:A1 0.000462517
11 *3:10 *975:A2 0.000453333
12 *3:10 *993:CLK 0.000137077
13 *3:10 *995:D 4.1381e-05
14 *3:10 *99:27 0.000876799
15 *3:10 *100:10 8.97311e-05
16 *3:10 *117:8 0
17 *3:10 *117:93 0
18 *3:10 *121:12 0
*RES
1 clk *3:10 23.766 
2 *3:10 *996:I 5.184 
*END

*D_NET *4 0.0021814
*CONN
*P duty[0] I
*I *1005:I I *D gf180mcu_fd_sc_mcu7t5v0__buf_2
*CAP
1 duty[0] 0.000600051
2 *1005:I 0.000600051
3 *1005:I *918:A1 8.73421e-05
4 *1005:I *919:A1 0.00026286
5 *1005:I *1008:I 2.976e-05
6 *1005:I *1009:I 0.000500628
7 *1005:I *1011:I 1.29518e-05
8 *1005:I *47:32 7.32769e-05
9 *1005:I *47:34 1.44832e-05
*RES
1 duty[0] *1005:I 15.118 
*END

*D_NET *5 0.000966413
*CONN
*P duty[1] I
*I *1008:I I *D gf180mcu_fd_sc_mcu7t5v0__buf_2
*CAP
1 duty[1] 0.000189346
2 *1008:I 0.000189346
3 *1008:I *1009:I 0.000469709
4 *1008:I *1011:I 8.82524e-05
5 *1005:I *1008:I 2.976e-05
*RES
1 duty[1] *1008:I 11.698 
*END

*D_NET *6 0.0014768
*CONN
*P duty[2] I
*I *1009:I I *D gf180mcu_fd_sc_mcu7t5v0__buf_2
*CAP
1 duty[2] 0.00025323
2 *1009:I 0.00025323
3 *1009:I *918:A1 0
4 *1005:I *1009:I 0.000500628
5 *1008:I *1009:I 0.000469709
*RES
1 duty[2] *1009:I 12.61 
*END

*D_NET *7 0.000816488
*CONN
*P duty[3] I
*I *1010:I I *D gf180mcu_fd_sc_mcu7t5v0__buf_2
*CAP
1 duty[3] 0.00017339
2 *1010:I 0.00017339
3 *1010:I pwm 0.000469709
4 *1010:I *1012:I 0
*RES
1 duty[3] *1010:I 11.318 
*END

*D_NET *8 0.000770492
*CONN
*P duty[4] I
*I *1011:I I *D gf180mcu_fd_sc_mcu7t5v0__buf_2
*CAP
1 duty[4] 0.000334644
2 *1011:I 0.000334644
3 *1005:I *1011:I 1.29518e-05
4 *1008:I *1011:I 8.82524e-05
*RES
1 duty[4] *1011:I 11.546 
*END

*D_NET *9 0.00184198
*CONN
*P duty[5] I
*I *1012:I I *D gf180mcu_fd_sc_mcu7t5v0__buf_2
*CAP
1 duty[5] 0.000396053
2 *1012:I 0.000396053
3 *1012:I *914:A1 2.57058e-06
4 *1012:I *915:A1 0.000366552
5 *1012:I *1006:I 0.000680751
6 *1010:I *1012:I 0
*RES
1 duty[5] *1012:I 13.674 
*END

*D_NET *10 0.000948776
*CONN
*P duty[6] I
*I *1013:I I *D gf180mcu_fd_sc_mcu7t5v0__buf_2
*CAP
1 duty[6] 0.000407191
2 *1013:I 0.000407191
3 *1013:I *914:A1 5.04498e-05
4 *1013:I *1014:I 0
5 *1013:I *1015:I 8.39435e-05
*RES
1 duty[6] *1013:I 12.002 
*END

*D_NET *11 0.000703195
*CONN
*P duty[7] I
*I *1014:I I *D gf180mcu_fd_sc_mcu7t5v0__buf_2
*CAP
1 duty[7] 0.000228785
2 *1014:I 0.000228785
3 *1014:I *1007:I 0.000245625
4 *1013:I *1014:I 0
*RES
1 duty[7] *1014:I 11.318 
*END

*D_NET *12 0.000787389
*CONN
*P duty[8] I
*I *1015:I I *D gf180mcu_fd_sc_mcu7t5v0__buf_2
*CAP
1 duty[8] 0.000345247
2 *1015:I 0.000345247
3 *1015:I *914:A1 1.29518e-05
4 *1013:I *1015:I 8.39435e-05
*RES
1 duty[8] *1015:I 11.546 
*END

*D_NET *13 0.00113925
*CONN
*P enable I
*I *1006:I I *D gf180mcu_fd_sc_mcu7t5v0__buf_2
*CAP
1 enable 0.000229248
2 *1006:I 0.000229248
3 *1012:I *1006:I 0.000680751
*RES
1 enable *1006:I 11.85 
*END

*D_NET *14 0.0010521
*CONN
*P pwm O
*I *1016:Z O *D gf180mcu_fd_sc_mcu7t5v0__buf_2
*CAP
1 pwm 0.000291196
2 *1016:Z 0.000291196
3 pwm *47:32 0
4 *1010:I pwm 0.000469709
*RES
1 *1016:Z pwm 11.85 
*END

*D_NET *15 0.000954342
*CONN
*P rst I
*I *1007:I I *D gf180mcu_fd_sc_mcu7t5v0__buf_2
*CAP
1 rst 0.000354358
2 *1007:I 0.000354358
3 *1007:I *972:B2 0
4 *1014:I *1007:I 0.000245625
*RES
1 rst *1007:I 12.002 
*END

*D_NET *16 0.000763411
*CONN
*I *977:D I *D gf180mcu_fd_sc_mcu7t5v0__dffq_1
*I *948:ZN O *D gf180mcu_fd_sc_mcu7t5v0__aoi21_1
*CAP
1 *977:D 0.000248114
2 *948:ZN 0.000248114
3 *977:D *948:A1 2.333e-05
4 *977:D *948:A2 0.000193878
5 *977:D *964:A2 4.99744e-05
*RES
1 *948:ZN *977:D 19.672 
*END

*D_NET *17 0.000247528
*CONN
*I *978:D I *D gf180mcu_fd_sc_mcu7t5v0__dffq_1
*I *949:ZN O *D gf180mcu_fd_sc_mcu7t5v0__nand2_1
*CAP
1 *978:D 0.000123764
2 *949:ZN 0.000123764
*RES
1 *949:ZN *978:D 9.684 
*END

*D_NET *18 0.000446348
*CONN
*I *979:D I *D gf180mcu_fd_sc_mcu7t5v0__dffq_1
*I *950:ZN O *D gf180mcu_fd_sc_mcu7t5v0__nand2_1
*CAP
1 *979:D 0.000214528
2 *950:ZN 0.000214528
3 *979:D *979:CLK 0
4 *979:D *93:8 1.72912e-05
*RES
1 *950:ZN *979:D 10.368 
*END

*D_NET *19 0.000945222
*CONN
*I *980:D I *D gf180mcu_fd_sc_mcu7t5v0__dffq_1
*I *951:ZN O *D gf180mcu_fd_sc_mcu7t5v0__oai21_1
*CAP
1 *980:D 0.000147637
2 *951:ZN 0.000147637
3 *980:D *926:A1 0.00018927
4 *980:D *104:35 5.55495e-05
5 *980:D *107:47 0.000103327
6 *980:D *108:17 0.000213194
7 *980:D *108:28 8.8608e-05
*RES
1 *951:ZN *980:D 19.824 
*END

*D_NET *20 0.000524855
*CONN
*I *981:D I *D gf180mcu_fd_sc_mcu7t5v0__dffq_1
*I *952:Z O *D gf180mcu_fd_sc_mcu7t5v0__or2_1
*CAP
1 *981:D 0.000262427
2 *952:Z 0.000262427
*RES
1 *952:Z *981:D 10.824 
*END

*D_NET *21 0.000559457
*CONN
*I *982:D I *D gf180mcu_fd_sc_mcu7t5v0__dffq_1
*I *953:ZN O *D gf180mcu_fd_sc_mcu7t5v0__nand2_1
*CAP
1 *982:D 0.000257766
2 *953:ZN 0.000257766
3 *982:D *953:A1 1.58994e-05
4 *982:D *122:25 2.80263e-05
*RES
1 *953:ZN *982:D 10.748 
*END

*D_NET *22 0.000376065
*CONN
*I *983:D I *D gf180mcu_fd_sc_mcu7t5v0__dffq_1
*I *954:ZN O *D gf180mcu_fd_sc_mcu7t5v0__nand2_1
*CAP
1 *983:D 0.000123738
2 *954:ZN 0.000123738
3 *983:D *982:CLK 7.53241e-05
4 *983:D *122:16 5.3266e-05
*RES
1 *954:ZN *983:D 10.064 
*END

*D_NET *23 0.000594391
*CONN
*I *984:D I *D gf180mcu_fd_sc_mcu7t5v0__dffq_1
*I *955:ZN O *D gf180mcu_fd_sc_mcu7t5v0__nand2_1
*CAP
1 *984:D 0.000165766
2 *955:ZN 0.000165766
3 *984:D *984:CLK 0.00026286
*RES
1 *955:ZN *984:D 10.368 
*END

*D_NET *24 0.000553459
*CONN
*I *985:D I *D gf180mcu_fd_sc_mcu7t5v0__dffq_1
*I *956:ZN O *D gf180mcu_fd_sc_mcu7t5v0__nand2_1
*CAP
1 *985:D 0.000237579
2 *956:ZN 0.000237579
3 *985:D *956:A1 5.71282e-05
4 *985:D *985:CLK 2.11734e-05
*RES
1 *956:ZN *985:D 10.52 
*END

*D_NET *25 0.000491305
*CONN
*I *986:D I *D gf180mcu_fd_sc_mcu7t5v0__dffq_1
*I *958:ZN O *D gf180mcu_fd_sc_mcu7t5v0__aoi211_1
*CAP
1 *986:D 0.000225919
2 *958:ZN 0.000225919
3 *986:D *92:12 3.94662e-05
*RES
1 *958:ZN *986:D 10.368 
*END

*D_NET *26 0.000907019
*CONN
*I *987:D I *D gf180mcu_fd_sc_mcu7t5v0__dffq_1
*I *960:ZN O *D gf180mcu_fd_sc_mcu7t5v0__aoi211_1
*CAP
1 *987:D 0.000377055
2 *960:ZN 0.000377055
3 *987:D *960:A1 1.4689e-05
4 *987:D *987:CLK 0
5 *987:D *103:10 0.00013822
*RES
1 *960:ZN *987:D 11.356 
*END

*D_NET *27 0.000780986
*CONN
*I *988:D I *D gf180mcu_fd_sc_mcu7t5v0__dffq_1
*I *962:ZN O *D gf180mcu_fd_sc_mcu7t5v0__aoi21_1
*CAP
1 *988:D 0.00028071
2 *962:ZN 0.00028071
3 *988:D *962:A2 0.00019344
4 *988:D *979:CLK 0
5 *988:D *120:80 2.6126e-05
*RES
1 *962:ZN *988:D 11.128 
*END

*D_NET *28 0.000294159
*CONN
*I *989:D I *D gf180mcu_fd_sc_mcu7t5v0__dffq_1
*I *964:ZN O *D gf180mcu_fd_sc_mcu7t5v0__aoi21_1
*CAP
1 *989:D 9.11504e-05
2 *964:ZN 9.11504e-05
3 *989:D *964:A1 0.000111858
*RES
1 *964:ZN *989:D 9.684 
*END

*D_NET *29 0.000775113
*CONN
*I *990:D I *D gf180mcu_fd_sc_mcu7t5v0__dffq_1
*I *966:ZN O *D gf180mcu_fd_sc_mcu7t5v0__aoi21_1
*CAP
1 *990:D 5.69993e-05
2 *966:ZN 5.69993e-05
3 *990:D *966:A1 0.000255722
4 *990:D *966:B 0.000255722
5 *990:D *104:12 0.00014967
*RES
1 *966:ZN *990:D 19.064 
*END

*D_NET *30 0.000818326
*CONN
*I *991:D I *D gf180mcu_fd_sc_mcu7t5v0__dffq_1
*I *968:ZN O *D gf180mcu_fd_sc_mcu7t5v0__aoi211_1
*CAP
1 *991:D 0.000233191
2 *968:ZN 0.000233191
3 *991:D *967:A2 0
4 *991:D *968:A1 7.49908e-05
5 *991:D *102:6 9.18587e-05
6 *991:D *102:11 6.88377e-05
7 *991:D *102:27 7.74548e-05
8 *991:D *102:32 3.88008e-05
*RES
1 *968:ZN *991:D 11.128 
*END

*D_NET *31 0.000577246
*CONN
*I *992:D I *D gf180mcu_fd_sc_mcu7t5v0__dffq_1
*I *971:ZN O *D gf180mcu_fd_sc_mcu7t5v0__nor2_1
*CAP
1 *992:D 0.000159481
2 *971:ZN 0.000159481
3 *992:D *117:25 0.000258284
*RES
1 *971:ZN *992:D 10.216 
*END

*D_NET *32 0.000247528
*CONN
*I *993:D I *D gf180mcu_fd_sc_mcu7t5v0__dffq_1
*I *973:ZN O *D gf180mcu_fd_sc_mcu7t5v0__nor2_1
*CAP
1 *993:D 0.000123764
2 *973:ZN 0.000123764
*RES
1 *973:ZN *993:D 9.684 
*END

*D_NET *33 0.000394721
*CONN
*I *994:D I *D gf180mcu_fd_sc_mcu7t5v0__dffq_1
*I *975:ZN O *D gf180mcu_fd_sc_mcu7t5v0__nor2_1
*CAP
1 *994:D 0.000169582
2 *975:ZN 0.000169582
3 *994:D *105:47 5.55572e-05
*RES
1 *975:ZN *994:D 10.064 
*END

*D_NET *34 0.000329794
*CONN
*I *995:D I *D gf180mcu_fd_sc_mcu7t5v0__dffq_1
*I *976:ZN O *D gf180mcu_fd_sc_mcu7t5v0__aoi21_1
*CAP
1 *995:D 0.000106544
2 *976:ZN 0.000106544
3 *995:D *121:12 7.53241e-05
4 *3:10 *995:D 4.1381e-05
*RES
1 *976:ZN *995:D 9.912 
*END

*D_NET *35 0.000435449
*CONN
*I *958:B I *D gf180mcu_fd_sc_mcu7t5v0__aoi211_1
*I *957:ZN O *D gf180mcu_fd_sc_mcu7t5v0__nor2_1
*CAP
1 *958:B 4.61391e-05
2 *957:ZN 4.61391e-05
3 *958:B *958:C 0.000229879
4 *958:B *92:12 0.000113292
*RES
1 *957:ZN *958:B 19.14 
*END

*D_NET *36 0.000998411
*CONN
*I *960:B I *D gf180mcu_fd_sc_mcu7t5v0__aoi211_1
*I *959:ZN O *D gf180mcu_fd_sc_mcu7t5v0__nor2_1
*CAP
1 *960:B 0.000257261
2 *959:ZN 0.000257261
3 *960:B *929:A1 0.00020847
4 *960:B *959:A2 0.000193933
5 *960:B *960:C 1.5961e-05
6 *960:B *979:CLK 0
7 *960:B *103:10 6.55256e-05
*RES
1 *959:ZN *960:B 20.432 
*END

*D_NET *37 0.000837633
*CONN
*I *962:B I *D gf180mcu_fd_sc_mcu7t5v0__aoi21_1
*I *961:ZN O *D gf180mcu_fd_sc_mcu7t5v0__oai21_1
*CAP
1 *962:B 0.000121649
2 *961:ZN 0.000121649
3 *962:B *929:A1 0.000594335
4 *962:B *959:A1 0
*RES
1 *961:ZN *962:B 19.444 
*END

*D_NET *38 0.0023016
*CONN
*I *964:B I *D gf180mcu_fd_sc_mcu7t5v0__aoi21_1
*I *963:ZN O *D gf180mcu_fd_sc_mcu7t5v0__oai21_1
*CAP
1 *964:B 0.000288468
2 *963:ZN 0.000288468
3 *964:B *948:A2 0.000723661
4 *964:B *963:A1 0.00026286
5 *964:B *968:A2 0.000723661
6 *964:B *991:CLK 0
7 *964:B *95:8 1.44832e-05
*RES
1 *963:ZN *964:B 21.648 
*END

*D_NET *39 0.00198915
*CONN
*I *966:B I *D gf180mcu_fd_sc_mcu7t5v0__aoi21_1
*I *965:ZN O *D gf180mcu_fd_sc_mcu7t5v0__oai21_1
*CAP
1 *966:B 0.000330823
2 *965:ZN 0.000330823
3 *966:B *963:B 1.99058e-05
4 *966:B *966:A1 0.000378994
5 *966:B *102:32 0.00021931
6 *966:B *120:12 0.000453575
7 *990:D *966:B 0.000255722
*RES
1 *965:ZN *966:B 22.104 
*END

*D_NET *40 0.00100796
*CONN
*I *968:B I *D gf180mcu_fd_sc_mcu7t5v0__aoi211_1
*I *967:ZN O *D gf180mcu_fd_sc_mcu7t5v0__nor2_1
*CAP
1 *968:B 1.22278e-05
2 *967:ZN 1.22278e-05
3 *968:B *902:I 0.000657859
4 *968:B *952:A1 0.00024584
5 *968:B *117:99 7.98048e-05
*RES
1 *967:ZN *968:B 19.596 
*END

*D_NET *41 0.00365874
*CONN
*I *970:B1 I *D gf180mcu_fd_sc_mcu7t5v0__aoi22_1
*I *975:A1 I *D gf180mcu_fd_sc_mcu7t5v0__nor2_1
*I *972:B1 I *D gf180mcu_fd_sc_mcu7t5v0__aoi22_1
*I *969:ZN O *D gf180mcu_fd_sc_mcu7t5v0__nor2_1
*CAP
1 *970:B1 3.28034e-05
2 *975:A1 0.000399051
3 *972:B1 0
4 *969:ZN 6.85847e-05
5 *41:8 0.00060429
6 *41:6 0.000306627
7 *975:A1 *972:A1 0.000316078
8 *975:A1 *973:A1 0.00017019
9 *975:A1 *973:A2 0.000193933
10 *975:A1 *117:25 9.45638e-06
11 *41:6 *914:A1 1.02823e-05
12 *41:6 *914:A2 0.000149579
13 *41:6 *969:A2 0.00032464
14 *41:6 *970:B2 4.50449e-05
15 *41:6 *972:A2 2.17248e-05
16 *41:8 *914:A1 2.333e-05
17 *41:8 *972:A2 0.000148623
18 *41:8 *972:B2 0.000132001
19 *41:8 *973:A1 0.000209093
20 *41:8 *973:A2 3.08902e-05
21 *3:10 *975:A1 0.000462517
*RES
1 *969:ZN *41:6 5.792 
2 *41:6 *41:8 2.204 
3 *41:8 *972:B1 4.5 
4 *41:8 *975:A1 18.06 
5 *41:6 *970:B1 4.728 
*END

*D_NET *42 0.000787353
*CONN
*I *971:A2 I *D gf180mcu_fd_sc_mcu7t5v0__nor2_1
*I *970:ZN O *D gf180mcu_fd_sc_mcu7t5v0__aoi22_1
*CAP
1 *971:A2 0.000166213
2 *970:ZN 0.000166213
3 *971:A2 *903:I 4.84399e-05
4 *971:A2 *969:A2 0.000270904
5 *971:A2 *970:A1 0.000135583
6 *971:A2 *117:25 0
*RES
1 *970:ZN *971:A2 19.824 
*END

*D_NET *43 0.000402777
*CONN
*I *973:A2 I *D gf180mcu_fd_sc_mcu7t5v0__nor2_1
*I *972:ZN O *D gf180mcu_fd_sc_mcu7t5v0__aoi22_1
*CAP
1 *973:A2 8.8977e-05
2 *972:ZN 8.8977e-05
3 *975:A1 *973:A2 0.000193933
4 *41:8 *973:A2 3.08902e-05
*RES
1 *972:ZN *973:A2 9.684 
*END

*D_NET *44 0.00081896
*CONN
*I *975:A2 I *D gf180mcu_fd_sc_mcu7t5v0__nor2_1
*I *974:ZN O *D gf180mcu_fd_sc_mcu7t5v0__oai21_1
*CAP
1 *975:A2 0.000182814
2 *974:ZN 0.000182814
3 *3:10 *975:A2 0.000453333
*RES
1 *974:ZN *975:A2 20.204 
*END

*D_NET *45 0.000241725
*CONN
*I *937:B2 I *D gf180mcu_fd_sc_mcu7t5v0__oai22_1
*I *901:ZN O *D gf180mcu_fd_sc_mcu7t5v0__clkinv_1
*CAP
1 *937:B2 0.000104769
2 *901:ZN 0.000104769
3 *937:B2 *934:B2 1.23313e-05
4 *937:B2 *937:B1 4.58601e-06
5 *937:B2 *96:23 1.52691e-05
*RES
1 *901:ZN *937:B2 9.76 
*END

*D_NET *46 0.00403928
*CONN
*I *937:A1 I *D gf180mcu_fd_sc_mcu7t5v0__oai22_1
*I *934:B2 I *D gf180mcu_fd_sc_mcu7t5v0__aoi221_1
*I *902:ZN O *D gf180mcu_fd_sc_mcu7t5v0__clkinv_1
*CAP
1 *937:A1 0
2 *934:B2 0.000696028
3 *902:ZN 0.0001907
4 *46:10 0.000886728
5 *934:B2 *937:A2 0.000154348
6 *934:B2 *937:B1 2.6126e-05
7 *934:B2 *951:B 0.0010362
8 *934:B2 *96:8 0
9 *934:B2 *96:23 0
10 *46:10 *952:A1 0.00095033
11 *46:10 *122:33 8.64878e-05
12 *937:B2 *934:B2 1.23313e-05
*RES
1 *902:ZN *46:10 15.856 
2 *46:10 *934:B2 10.656 
3 *46:10 *937:A1 4.5 
*END

*D_NET *47 0.00629657
*CONN
*I *917:A1 I *D gf180mcu_fd_sc_mcu7t5v0__and4_1
*I *916:A2 I *D gf180mcu_fd_sc_mcu7t5v0__nand2_1
*I *915:A2 I *D gf180mcu_fd_sc_mcu7t5v0__nand2_1
*I *919:A2 I *D gf180mcu_fd_sc_mcu7t5v0__nand2_1
*I *920:A2 I *D gf180mcu_fd_sc_mcu7t5v0__nand2_1
*I *921:A2 I *D gf180mcu_fd_sc_mcu7t5v0__nand2_1
*I *918:A2 I *D gf180mcu_fd_sc_mcu7t5v0__nand2_1
*I *922:B I *D gf180mcu_fd_sc_mcu7t5v0__oai21_1
*I *903:ZN O *D gf180mcu_fd_sc_mcu7t5v0__clkinv_1
*CAP
1 *917:A1 0.000174765
2 *916:A2 0
3 *915:A2 0
4 *919:A2 0
5 *920:A2 0
6 *921:A2 0
7 *918:A2 5.12287e-05
8 *922:B 7.69421e-06
9 *903:ZN 0.000355133
10 *47:51 0.000207723
11 *47:47 0.000329625
12 *47:34 0.000219733
13 *47:32 0.000426103
14 *47:22 0.000521158
15 *47:14 0.000206844
16 *47:8 0.000602779
17 *917:A1 *968:A2 0
18 *917:A1 *116:8 4.75539e-05
19 *918:A2 *921:A1 5.66861e-05
20 *918:A2 *923:A2 1.2339e-05
21 *918:A2 *958:A2 4.58601e-06
22 *918:A2 *62:8 0.000143649
23 *918:A2 *124:12 0.00023222
24 *922:B *918:A1 9.26705e-05
25 *922:B *921:A1 3.73535e-05
26 *47:8 *917:A2 0
27 *47:8 *924:A3 0
28 *47:8 *1016:I 4.26315e-06
29 *47:8 *117:35 0
30 *47:14 *917:A4 3.25235e-05
31 *47:14 *923:A1 0.000253457
32 *47:14 *924:A3 0
33 *47:14 *1016:I 0.000363353
34 *47:22 *917:A3 2.59409e-05
35 *47:22 *964:A2 0.000213194
36 *47:22 *968:A2 5.66946e-05
37 *47:32 *915:A1 3.08902e-05
38 *47:32 *917:A4 3.08902e-05
39 *47:32 *919:A1 6.07941e-05
40 *47:32 *923:A1 0.000169505
41 *47:32 *115:8 0.00037144
42 *47:34 *918:A1 0.000355531
43 *47:34 *921:A1 9.88736e-06
44 *47:34 *115:8 0.00019207
45 *47:47 *919:A1 0
46 *47:47 *920:A1 9.50423e-05
47 *47:47 *921:A1 6.33531e-06
48 *47:47 *966:A2 0
49 *47:47 *63:10 0
50 *47:47 *124:12 1.78413e-05
51 *47:51 *921:A1 2.25107e-05
52 *47:51 *923:A2 7.98323e-05
53 *47:51 *115:8 2.9378e-06
54 *47:51 *124:12 8.40333e-05
55 pwm *47:32 0
56 *1005:I *47:32 7.32769e-05
57 *1005:I *47:34 1.44832e-05
*RES
1 *903:ZN *47:8 6.628 
2 *47:8 *47:14 1.444 
3 *47:14 *47:22 10.064 
4 *47:22 *47:32 3.724 
5 *47:32 *47:34 1.14 
6 *47:34 *922:B 4.728 
7 *47:34 *47:47 10.14 
8 *47:47 *47:51 1.216 
9 *47:51 *918:A2 14.564 
10 *47:51 *921:A2 4.5 
11 *47:47 *920:A2 4.5 
12 *47:32 *919:A2 4.5 
13 *47:22 *915:A2 4.5 
14 *47:14 *916:A2 4.5 
15 *47:8 *917:A1 14.944 
*END

*D_NET *48 0.005564
*CONN
*I *974:B I *D gf180mcu_fd_sc_mcu7t5v0__oai21_1
*I *1004:I I *D gf180mcu_fd_sc_mcu7t5v0__buf_2
*I *904:ZN O *D gf180mcu_fd_sc_mcu7t5v0__clkinv_1
*CAP
1 *974:B 0.00101121
2 *1004:I 0.000126365
3 *904:ZN 0.000103408
4 *48:6 0.00124099
5 *974:B *911:A2 0.000257286
6 *974:B *943:B1 0.000174563
7 *974:B *943:B2 2.29928e-05
8 *974:B *945:A2 0.000157865
9 *974:B *945:B 0.000297035
10 *974:B *955:A2 9.88736e-06
11 *974:B *956:A1 0.000342497
12 *974:B *974:A1 8.62869e-05
13 *974:B *1002:I 2.35365e-05
14 *974:B *54:10 0.000311652
15 *974:B *86:8 0.000804306
16 *974:B *99:27 1.09162e-05
17 *974:B *100:10 2.6126e-05
18 *974:B *114:12 6.14664e-05
19 *974:B *121:8 7.24161e-06
20 *974:B *121:12 7.59566e-06
21 *974:B *122:16 1.76898e-05
22 *974:B *122:77 1.02578e-05
23 *1004:I *956:A1 0
24 *1004:I *53:12 3.48432e-05
25 *1004:I *122:10 0.000269857
26 *48:6 *955:A2 0.000141888
27 *3:10 *974:B 6.24061e-06
*RES
1 *904:ZN *48:6 5.336 
2 *48:6 *1004:I 14.64 
3 *48:6 *974:B 23.76 
*END

*D_NET *49 0.00450704
*CONN
*I *927:A1 I *D gf180mcu_fd_sc_mcu7t5v0__oai21_1
*I *932:A2 I *D gf180mcu_fd_sc_mcu7t5v0__nor3_1
*I *951:A1 I *D gf180mcu_fd_sc_mcu7t5v0__oai21_1
*I *933:A2 I *D gf180mcu_fd_sc_mcu7t5v0__xor2_1
*I *905:Z O *D gf180mcu_fd_sc_mcu7t5v0__and3_1
*CAP
1 *927:A1 0
2 *932:A2 0
3 *951:A1 0.000184111
4 *933:A2 0.000458855
5 *905:Z 0.000344009
6 *49:32 0.000370791
7 *49:24 0.000301526
8 *933:A2 *906:A1 2.40328e-06
9 *933:A2 *906:A2 0.00026286
10 *933:A2 *906:A3 0.000434294
11 *933:A2 *906:A4 3.56172e-05
12 *933:A2 *927:B 0
13 *951:A1 *951:A2 0.000285981
14 *951:A1 *951:B 0.00017927
15 *49:24 *927:B 0
16 *49:24 *77:10 0.000533098
17 *49:32 *927:A2 0.000141897
18 *49:32 *927:B 0.000668453
19 *49:32 *934:A1 0
20 *49:32 *70:8 2.96621e-05
21 *49:32 *70:14 0.000253849
22 *49:32 *77:10 0
23 *49:32 *104:35 2.03665e-05
*RES
1 *905:Z *933:A2 12.344 
2 *933:A2 *49:24 14.944 
3 *49:24 *49:32 11.584 
4 *49:32 *951:A1 6.476 
5 *49:32 *932:A2 4.5 
6 *49:24 *927:A1 4.5 
*END

*D_NET *50 0.00652656
*CONN
*I *907:A2 I *D gf180mcu_fd_sc_mcu7t5v0__nand2_1
*I *909:A4 I *D gf180mcu_fd_sc_mcu7t5v0__nand4_1
*I *908:A3 I *D gf180mcu_fd_sc_mcu7t5v0__nand3_1
*I *935:A2 I *D gf180mcu_fd_sc_mcu7t5v0__xor2_1
*I *906:Z O *D gf180mcu_fd_sc_mcu7t5v0__and4_1
*CAP
1 *907:A2 0
2 *909:A4 0.000321007
3 *908:A3 0
4 *935:A2 0
5 *906:Z 0.00130854
6 *50:27 0.0008991
7 *50:19 0.00107276
8 *50:8 0.00180321
9 *909:A4 *909:A1 2.9301e-05
10 *909:A4 *909:A2 3.87828e-05
11 *909:A4 *909:A3 0
12 *50:8 *906:A3 0
13 *50:8 *935:A1 5.76373e-06
14 *50:8 *79:14 9.26705e-05
15 *50:8 *110:12 0
16 *50:19 *907:A1 3.08902e-05
17 *50:19 *935:A1 4.83329e-05
18 *50:19 *79:14 0.000131429
19 *50:19 *111:17 0
20 *50:27 *907:A1 3.00299e-05
21 *50:27 *909:A1 5.18299e-05
22 *50:27 *938:A1 0.000134045
23 *50:27 *938:A2 0.000141888
24 *50:27 *111:32 7.71175e-06
25 *50:27 *112:8 0.000379274
*RES
1 *906:Z *50:8 12.404 
2 *50:8 *935:A2 4.5 
3 *50:8 *50:19 3.42 
4 *50:19 *50:27 8.984 
5 *50:27 *908:A3 9 
6 *50:27 *909:A4 11.128 
7 *50:19 *907:A2 4.5 
*END

*D_NET *51 0.000366127
*CONN
*I *938:A2 I *D gf180mcu_fd_sc_mcu7t5v0__xor2_1
*I *907:ZN O *D gf180mcu_fd_sc_mcu7t5v0__nand2_1
*CAP
1 *938:A2 6.64205e-05
2 *907:ZN 6.64205e-05
3 *938:A2 *938:A1 3.08902e-05
4 *938:A2 *111:32 6.05076e-05
5 *50:27 *938:A2 0.000141888
*RES
1 *907:ZN *938:A2 9.836 
*END

*D_NET *52 0.000740109
*CONN
*I *940:A2 I *D gf180mcu_fd_sc_mcu7t5v0__xor2_1
*I *908:ZN O *D gf180mcu_fd_sc_mcu7t5v0__nand3_1
*CAP
1 *940:A2 0.000123129
2 *908:ZN 0.000123129
3 *940:A2 *909:A1 0.000162057
4 *940:A2 *909:A2 6.16029e-05
5 *940:A2 *84:10 0
6 *940:A2 *111:32 3.73535e-05
7 *940:A2 *112:8 0.000206711
8 *940:A2 *113:10 2.6126e-05
*RES
1 *908:ZN *940:A2 10.292 
*END

*D_NET *53 0.00355432
*CONN
*I *942:A2 I *D gf180mcu_fd_sc_mcu7t5v0__xor2_1
*I *910:I I *D gf180mcu_fd_sc_mcu7t5v0__clkinv_1
*I *909:ZN O *D gf180mcu_fd_sc_mcu7t5v0__nand4_1
*CAP
1 *942:A2 0.000262449
2 *910:I 0
3 *909:ZN 0.000809864
4 *53:12 0.00107231
5 *942:A2 *943:B1 4.71809e-05
6 *942:A2 *943:B2 1.91917e-06
7 *942:A2 *54:10 3.13603e-05
8 *942:A2 *114:6 3.73627e-05
9 *53:12 *904:I 6.33531e-06
10 *53:12 *909:A3 0.000331093
11 *53:12 *943:B1 0.000149579
12 *53:12 *84:10 0.000379806
13 *53:12 *84:14 0.000390216
14 *53:12 *122:10 0
15 *1004:I *53:12 3.48432e-05
*RES
1 *909:ZN *53:12 21.708 
2 *53:12 *910:I 4.5 
3 *53:12 *942:A2 6.324 
*END

*D_NET *54 0.00168318
*CONN
*I *912:A2 I *D gf180mcu_fd_sc_mcu7t5v0__nand2_1
*I *911:A2 I *D gf180mcu_fd_sc_mcu7t5v0__and2_1
*I *910:ZN O *D gf180mcu_fd_sc_mcu7t5v0__clkinv_1
*CAP
1 *912:A2 5.60076e-05
2 *911:A2 0.000104861
3 *910:ZN 0.000144691
4 *54:10 0.00030556
5 *911:A2 *912:A1 7.21887e-05
6 *911:A2 *1002:I 9.62904e-05
7 *912:A2 *912:A1 5.4883e-05
8 *912:A2 *943:B2 0.000113773
9 *912:A2 *1002:I 0
10 *54:10 *943:B1 0.000134622
11 *942:A2 *54:10 3.13603e-05
12 *974:B *911:A2 0.000257286
13 *974:B *54:10 0.000311652
*RES
1 *910:ZN *54:10 10.216 
2 *54:10 *911:A2 10.216 
3 *54:10 *912:A2 9.532 
*END

*D_NET *55 0.00721246
*CONN
*I *1003:I I *D gf180mcu_fd_sc_mcu7t5v0__buf_2
*I *1002:I I *D gf180mcu_fd_sc_mcu7t5v0__buf_2
*I *911:Z O *D gf180mcu_fd_sc_mcu7t5v0__and2_1
*CAP
1 *1003:I 0.00079711
2 *1002:I 0.00161743
3 *911:Z 0
4 *55:4 0.00241454
5 *1002:I *902:I 2.22758e-05
6 *1002:I *904:I 0
7 *1002:I *912:A1 1.53361e-05
8 *1002:I *943:A1 3.48203e-05
9 *1002:I *943:B1 2.89664e-05
10 *1002:I *943:B2 0.000255714
11 *1002:I *965:B 7.83779e-05
12 *1002:I *967:A2 0.000246479
13 *1002:I *985:CLK 0.000160503
14 *1002:I *1000:I 9.25919e-05
15 *1002:I *56:10 0.000223166
16 *1002:I *96:8 3.01291e-05
17 *1002:I *97:19 0
18 *1002:I *102:32 0
19 *1002:I *102:66 7.74477e-05
20 *1002:I *102:71 0.000764281
21 *1002:I *120:8 3.94525e-05
22 *1003:I *956:A1 0
23 *1003:I *985:CLK 0.000194014
24 *911:A2 *1002:I 9.62904e-05
25 *912:A2 *1002:I 0
26 *974:B *1002:I 2.35365e-05
*RES
1 *911:Z *55:4 4.5 
2 *55:4 *1002:I 26.8 
3 *55:4 *1003:I 19.124 
*END

*D_NET *56 0.0100513
*CONN
*I *947:C I *D gf180mcu_fd_sc_mcu7t5v0__oai211_1
*I *925:A2 I *D gf180mcu_fd_sc_mcu7t5v0__nand2_1
*I *972:A2 I *D gf180mcu_fd_sc_mcu7t5v0__aoi22_1
*I *970:A2 I *D gf180mcu_fd_sc_mcu7t5v0__aoi22_1
*I *969:A2 I *D gf180mcu_fd_sc_mcu7t5v0__nor2_1
*I *912:ZN O *D gf180mcu_fd_sc_mcu7t5v0__nand2_1
*CAP
1 *947:C 0
2 *925:A2 0.000284233
3 *972:A2 0.000294576
4 *970:A2 0
5 *969:A2 0.000120475
6 *912:ZN 0.000336438
7 *56:33 0.000294576
8 *56:18 0.000801504
9 *56:12 0.00124441
10 *56:10 0.000615581
11 *925:A2 *925:A1 0.000386421
12 *925:A2 *947:A1 0
13 *969:A2 *903:I 0
14 *969:A2 *970:A1 0.000110772
15 *972:A2 *117:25 0
16 *56:10 *904:I 7.95952e-05
17 *56:10 *943:B2 1.2339e-05
18 *56:10 *985:CLK 0
19 *56:10 *98:21 0.00068962
20 *56:10 *102:11 0
21 *56:10 *106:12 0.000469567
22 *56:12 *904:I 2.59502e-05
23 *56:12 *98:21 0.000914003
24 *56:18 *970:A1 0.000268959
25 *56:18 *992:CLK 0.000885831
26 *56:18 *98:21 0.000595906
27 *56:18 *105:30 0.000399191
28 *971:A2 *969:A2 0.000270904
29 *1002:I *56:10 0.000223166
30 *3:10 *925:A2 0.000232309
31 *41:6 *969:A2 0.00032464
32 *41:6 *972:A2 2.17248e-05
33 *41:8 *972:A2 0.000148623
*RES
1 *912:ZN *56:10 12.952 
2 *56:10 *56:12 2.356 
3 *56:12 *56:18 7.524 
4 *56:18 *969:A2 10.596 
5 *56:18 *56:33 4.5 
6 *56:33 *970:A2 4.5 
7 *56:33 *972:A2 6.552 
8 *56:12 *925:A2 11.584 
9 *56:10 *947:C 9 
*END

*D_NET *57 0.00110981
*CONN
*I *976:A1 I *D gf180mcu_fd_sc_mcu7t5v0__aoi21_1
*I *913:ZN O *D gf180mcu_fd_sc_mcu7t5v0__nand2_1
*CAP
1 *976:A1 4.21096e-05
2 *913:ZN 4.21096e-05
3 *976:A1 *117:74 0.000460419
4 *976:A1 *117:93 9.52854e-05
5 *976:A1 *121:22 6.38438e-05
6 *976:A1 *121:50 0.000406043
*RES
1 *913:ZN *976:A1 19.444 
*END

*D_NET *58 0.00078472
*CONN
*I *917:A2 I *D gf180mcu_fd_sc_mcu7t5v0__and4_1
*I *914:ZN O *D gf180mcu_fd_sc_mcu7t5v0__nor2_1
*CAP
1 *917:A2 0.000260772
2 *914:ZN 0.000260772
3 *917:A2 *914:A1 6.12388e-05
4 *917:A2 *915:A1 0.000201937
5 *47:8 *917:A2 0
*RES
1 *914:ZN *917:A2 11.128 
*END

*D_NET *59 0.00650432
*CONN
*I *968:A2 I *D gf180mcu_fd_sc_mcu7t5v0__aoi211_1
*I *917:A3 I *D gf180mcu_fd_sc_mcu7t5v0__and4_1
*I *915:ZN O *D gf180mcu_fd_sc_mcu7t5v0__nand2_1
*CAP
1 *968:A2 0.000908363
2 *917:A3 0.000178637
3 *915:ZN 0
4 *59:6 0.001087
5 *917:A3 *915:A1 5.47552e-05
6 *917:A3 *916:A1 0.000102192
7 *917:A3 *917:A4 4.82995e-05
8 *968:A2 *902:I 0
9 *968:A2 *916:A1 0.000437693
10 *968:A2 *948:A2 0.000520493
11 *968:A2 *963:A1 0
12 *968:A2 *964:A2 0.00200088
13 *968:A2 *991:CLK 6.68164e-05
14 *968:A2 *1016:I 3.71904e-05
15 *968:A2 *117:99 0.000255714
16 *917:A1 *968:A2 0
17 *964:B *968:A2 0.000723661
18 *47:22 *917:A3 2.59409e-05
19 *47:22 *968:A2 5.66946e-05
*RES
1 *915:ZN *59:6 9 
2 *59:6 *917:A3 10.52 
3 *59:6 *968:A2 19.944 
*END

*D_NET *60 0.00434107
*CONN
*I *964:A2 I *D gf180mcu_fd_sc_mcu7t5v0__aoi21_1
*I *917:A4 I *D gf180mcu_fd_sc_mcu7t5v0__and4_1
*I *916:ZN O *D gf180mcu_fd_sc_mcu7t5v0__nand2_1
*CAP
1 *964:A2 0.000287883
2 *917:A4 0.000148757
3 *916:ZN 0
4 *60:4 0.000436641
5 *917:A4 *915:A1 3.00299e-05
6 *917:A4 *923:A1 0.000169363
7 *964:A2 *948:A2 0.000892638
8 *917:A3 *917:A4 4.82995e-05
9 *968:A2 *964:A2 0.00200088
10 *977:D *964:A2 4.99744e-05
11 *47:14 *917:A4 3.25235e-05
12 *47:22 *964:A2 0.000213194
13 *47:32 *917:A4 3.08902e-05
*RES
1 *916:ZN *60:4 4.5 
2 *60:4 *917:A4 6.02 
3 *60:4 *964:A2 18.592 
*END

*D_NET *61 0.00201309
*CONN
*I *923:A1 I *D gf180mcu_fd_sc_mcu7t5v0__nand4_1
*I *917:Z O *D gf180mcu_fd_sc_mcu7t5v0__and4_1
*CAP
1 *923:A1 0.000590289
2 *917:Z 0.000590289
3 *923:A1 *916:A1 7.3227e-05
4 *923:A1 *924:A3 0.000107848
5 *923:A1 *966:A2 0
6 *923:A1 *1016:I 3.39859e-05
7 *923:A1 *63:10 1.48677e-05
8 *923:A1 *115:8 1.02578e-05
9 *923:A1 *117:43 0
10 *917:A4 *923:A1 0.000169363
11 *47:14 *923:A1 0.000253457
12 *47:32 *923:A1 0.000169505
*RES
1 *917:Z *923:A1 22.94 
*END

*D_NET *62 0.00322305
*CONN
*I *960:A2 I *D gf180mcu_fd_sc_mcu7t5v0__aoi211_1
*I *923:A2 I *D gf180mcu_fd_sc_mcu7t5v0__nand4_1
*I *918:ZN O *D gf180mcu_fd_sc_mcu7t5v0__nand2_1
*CAP
1 *960:A2 0.000512861
2 *923:A2 0.000402127
3 *918:ZN 0.000147624
4 *62:8 0.00106261
5 *923:A2 *923:A4 2.84711e-05
6 *923:A2 *958:A2 0.000147313
7 *923:A2 *115:8 0
8 *923:A2 *117:43 0
9 *960:A2 *958:A1 0
10 *960:A2 *960:A1 1.3758e-05
11 *960:A2 *962:A2 0
12 *960:A2 *103:10 0
13 *960:A2 *103:30 0
14 *960:A2 *117:43 0.000656358
15 *960:A2 *120:47 0
16 *62:8 *920:A1 0
17 *62:8 *921:A1 1.61066e-05
18 *62:8 *958:A1 0
19 *918:A2 *923:A2 1.2339e-05
20 *918:A2 *62:8 0.000143649
21 *47:51 *923:A2 7.98323e-05
*RES
1 *918:ZN *62:8 10.292 
2 *62:8 *923:A2 11.812 
3 *62:8 *960:A2 12.496 
*END

*D_NET *63 0.00497038
*CONN
*I *966:A2 I *D gf180mcu_fd_sc_mcu7t5v0__aoi21_1
*I *923:A3 I *D gf180mcu_fd_sc_mcu7t5v0__nand4_1
*I *919:ZN O *D gf180mcu_fd_sc_mcu7t5v0__nand2_1
*CAP
1 *966:A2 0.00139224
2 *923:A3 0
3 *919:ZN 0.000159111
4 *63:10 0.00155135
5 *966:A2 *920:A1 0
6 *966:A2 *962:A2 0
7 *966:A2 *964:A1 0.000399191
8 *966:A2 *966:A1 0.000171134
9 *966:A2 *991:CLK 0.000441055
10 *966:A2 *104:12 0.000379283
11 *966:A2 *120:18 6.29515e-05
12 *966:A2 *120:24 0.000399191
13 *923:A1 *966:A2 0
14 *923:A1 *63:10 1.48677e-05
15 *47:47 *966:A2 0
16 *47:47 *63:10 0
*RES
1 *919:ZN *63:10 10.064 
2 *63:10 *923:A3 9 
3 *63:10 *966:A2 19.944 
*END

*D_NET *64 0.00308482
*CONN
*I *962:A2 I *D gf180mcu_fd_sc_mcu7t5v0__aoi21_1
*I *920:ZN O *D gf180mcu_fd_sc_mcu7t5v0__nand2_1
*CAP
1 *962:A2 0.000839164
2 *920:ZN 0.000839164
3 *962:A2 *959:A2 1.52691e-05
4 *962:A2 *989:CLK 0.000317494
5 *962:A2 *103:10 0.000490933
6 *962:A2 *103:30 0.000386421
7 *962:A2 *120:80 2.9378e-06
8 *960:A2 *962:A2 0
9 *966:A2 *962:A2 0
10 *988:D *962:A2 0.00019344
*RES
1 *920:ZN *962:A2 24.384 
*END

*D_NET *65 0.000850041
*CONN
*I *958:A2 I *D gf180mcu_fd_sc_mcu7t5v0__aoi211_1
*I *921:ZN O *D gf180mcu_fd_sc_mcu7t5v0__nand2_1
*CAP
1 *958:A2 0.000325572
2 *921:ZN 0.000325572
3 *958:A2 *957:A2 2.40328e-06
4 *958:A2 *958:A1 3.73535e-05
5 *958:A2 *92:12 7.24161e-06
6 *918:A2 *958:A2 4.58601e-06
7 *923:A2 *958:A2 0.000147313
*RES
1 *921:ZN *958:A2 11.052 
*END

*D_NET *66 0.000682396
*CONN
*I *923:A4 I *D gf180mcu_fd_sc_mcu7t5v0__nand4_1
*I *922:ZN O *D gf180mcu_fd_sc_mcu7t5v0__oai21_1
*CAP
1 *923:A4 0.000133752
2 *922:ZN 0.000133752
3 *923:A4 *115:8 0.000386421
4 *923:A2 *923:A4 2.84711e-05
*RES
1 *922:ZN *923:A4 10.368 
*END

*D_NET *67 0.00246654
*CONN
*I *924:A3 I *D gf180mcu_fd_sc_mcu7t5v0__nand3_1
*I *923:ZN O *D gf180mcu_fd_sc_mcu7t5v0__nand4_1
*CAP
1 *924:A3 0.000680554
2 *923:ZN 0.000680554
3 *924:A3 *1016:I 2.68653e-05
4 *924:A3 *117:35 0.000855992
5 *924:A3 *117:43 0.000114726
6 *923:A1 *924:A3 0.000107848
7 *47:8 *924:A3 0
8 *47:14 *924:A3 0
*RES
1 *923:ZN *924:A3 14.472 
*END

*D_NET *68 0.00066609
*CONN
*I *948:A1 I *D gf180mcu_fd_sc_mcu7t5v0__aoi21_1
*I *924:ZN O *D gf180mcu_fd_sc_mcu7t5v0__nand3_1
*CAP
1 *948:A1 0.000256387
2 *924:ZN 0.000256387
3 *948:A1 *117:35 0.000117344
4 *948:A1 *117:43 1.26428e-05
5 *977:D *948:A1 2.333e-05
*RES
1 *924:ZN *948:A1 10.9 
*END

*D_NET *69 0.00043293
*CONN
*I *976:A2 I *D gf180mcu_fd_sc_mcu7t5v0__aoi21_1
*I *925:ZN O *D gf180mcu_fd_sc_mcu7t5v0__nand2_1
*CAP
1 *976:A2 1.10497e-05
2 *925:ZN 1.10497e-05
3 *976:A2 *117:93 0.000276717
4 *976:A2 *121:22 0.000134113
*RES
1 *925:ZN *976:A2 18.684 
*END

*D_NET *70 0.00274831
*CONN
*I *927:A2 I *D gf180mcu_fd_sc_mcu7t5v0__oai21_1
*I *932:A3 I *D gf180mcu_fd_sc_mcu7t5v0__nor3_1
*I *951:A2 I *D gf180mcu_fd_sc_mcu7t5v0__oai21_1
*I *926:ZN O *D gf180mcu_fd_sc_mcu7t5v0__aoi21_1
*CAP
1 *927:A2 4.71008e-05
2 *932:A3 0
3 *951:A2 0.000141059
4 *926:ZN 0.000259675
5 *70:14 0.00021508
6 *70:8 0.000380797
7 *927:A2 *104:35 0.00013201
8 *951:A2 *934:A2 0.00035308
9 *951:A2 *951:B 1.15275e-05
10 *951:A2 *104:35 0.000162031
11 *70:8 *906:A1 0
12 *70:8 *927:B 5.87561e-06
13 *70:8 *104:35 0.000316002
14 *70:14 *934:A1 1.2682e-05
15 *951:A1 *951:A2 0.000285981
16 *49:32 *927:A2 0.000141897
17 *49:32 *70:8 2.96621e-05
18 *49:32 *70:14 0.000253849
*RES
1 *926:ZN *70:8 6.628 
2 *70:8 *70:14 9.684 
3 *70:14 *951:A2 6.628 
4 *70:14 *932:A3 4.5 
5 *70:8 *927:A2 5.336 
*END

*D_NET *71 0.000291166
*CONN
*I *934:A1 I *D gf180mcu_fd_sc_mcu7t5v0__aoi221_1
*I *927:ZN O *D gf180mcu_fd_sc_mcu7t5v0__oai21_1
*CAP
1 *934:A1 7.21852e-05
2 *927:ZN 7.21852e-05
3 *934:A1 *77:10 0.000134113
4 *49:32 *934:A1 0
5 *70:14 *934:A1 1.2682e-05
*RES
1 *927:ZN *934:A1 18.684 
*END

*D_NET *72 0.000560118
*CONN
*I *931:A1 I *D gf180mcu_fd_sc_mcu7t5v0__aoi22_1
*I *928:Z O *D gf180mcu_fd_sc_mcu7t5v0__or2_1
*CAP
1 *931:A1 5.82833e-05
2 *928:Z 5.82833e-05
3 *931:A1 *928:A2 2.47642e-05
4 *931:A1 *929:A2 1.47743e-05
5 *931:A1 *931:B2 0.000222333
6 *931:A1 *934:A2 3.37485e-05
7 *931:A1 *949:A2 0.000147932
*RES
1 *928:Z *931:A1 19.14 
*END

*D_NET *73 0.000450044
*CONN
*I *931:A2 I *D gf180mcu_fd_sc_mcu7t5v0__aoi22_1
*I *929:Z O *D gf180mcu_fd_sc_mcu7t5v0__and2_1
*CAP
1 *931:A2 0.000175263
2 *929:Z 0.000175263
3 *931:A2 *928:A2 4.58601e-06
4 *931:A2 *929:A2 9.49314e-05
*RES
1 *929:Z *931:A2 10.064 
*END

*D_NET *74 0.00201296
*CONN
*I *931:B1 I *D gf180mcu_fd_sc_mcu7t5v0__aoi22_1
*I *950:A2 I *D gf180mcu_fd_sc_mcu7t5v0__nand2_1
*I *930:ZN O *D gf180mcu_fd_sc_mcu7t5v0__xnor2_1
*CAP
1 *931:B1 7.3755e-05
2 *950:A2 0.00014472
3 *930:ZN 4.16877e-05
4 *74:6 0.000260163
5 *931:B1 *928:A2 0.000212922
6 *931:B1 *929:A2 3.17546e-05
7 *950:A2 *949:A2 0.000905084
8 *950:A2 *108:17 8.15645e-05
9 *74:6 *928:A2 7.83779e-05
10 *74:6 *929:A2 5.87561e-06
11 *74:6 *107:16 2.97523e-05
12 *74:6 *108:8 0.000147305
*RES
1 *930:ZN *74:6 5.032 
2 *74:6 *950:A2 15.704 
3 *74:6 *931:B1 5.184 
*END

*D_NET *75 0.00333808
*CONN
*I *934:A2 I *D gf180mcu_fd_sc_mcu7t5v0__aoi221_1
*I *931:ZN O *D gf180mcu_fd_sc_mcu7t5v0__aoi22_1
*CAP
1 *934:A2 0.000671098
2 *931:ZN 0.000671098
3 *934:A2 *927:B 5.98764e-05
4 *934:A2 *929:A2 0.000206333
5 *934:A2 *934:C 0.000255972
6 *934:A2 *949:A2 4.18846e-05
7 *934:A2 *951:B 7.71175e-06
8 *934:A2 *94:21 0.000393285
9 *934:A2 *104:35 0.000643993
10 *934:A2 *108:17 0
11 *931:A1 *934:A2 3.37485e-05
12 *951:A2 *934:A2 0.00035308
*RES
1 *931:ZN *934:A2 25.6 
*END

*D_NET *76 0.000566256
*CONN
*I *934:C I *D gf180mcu_fd_sc_mcu7t5v0__aoi221_1
*I *932:ZN O *D gf180mcu_fd_sc_mcu7t5v0__nor3_1
*CAP
1 *934:C 0.000104843
2 *932:ZN 0.000104843
3 *934:C *934:B1 1.5015e-05
4 *934:C *951:B 8.55819e-05
5 *934:A2 *934:C 0.000255972
*RES
1 *932:ZN *934:C 10.292 
*END

*D_NET *77 0.00555706
*CONN
*I *937:A2 I *D gf180mcu_fd_sc_mcu7t5v0__oai22_1
*I *952:A2 I *D gf180mcu_fd_sc_mcu7t5v0__or2_1
*I *934:B1 I *D gf180mcu_fd_sc_mcu7t5v0__aoi221_1
*I *933:Z O *D gf180mcu_fd_sc_mcu7t5v0__xor2_1
*CAP
1 *937:A2 6.85931e-05
2 *952:A2 0.000179394
3 *934:B1 1.40646e-05
4 *933:Z 0.000313224
5 *77:21 0.000422875
6 *77:10 0.000502176
7 *934:B1 *939:B2 2.9378e-06
8 *934:B1 *951:B 9.26705e-05
9 *934:B1 *104:35 1.65795e-06
10 *937:A2 *939:B2 0.0011426
11 *937:A2 *951:B 0.000742452
12 *77:10 *927:B 0
13 *77:10 *94:21 0
14 *77:21 *939:B2 0.000186983
15 *77:21 *951:B 0.00105085
16 *934:A1 *77:10 0.000134113
17 *934:B2 *937:A2 0.000154348
18 *934:C *934:B1 1.5015e-05
19 *49:24 *77:10 0.000533098
20 *49:32 *77:10 0
*RES
1 *933:Z *77:10 16.312 
2 *77:10 *934:B1 4.728 
3 *77:10 *77:21 2.888 
4 *77:21 *952:A2 14.488 
5 *77:21 *937:A2 7.464 
*END

*D_NET *78 0.00377924
*CONN
*I *939:B2 I *D gf180mcu_fd_sc_mcu7t5v0__oai222_1
*I *934:ZN O *D gf180mcu_fd_sc_mcu7t5v0__aoi221_1
*CAP
1 *939:B2 0.000413563
2 *934:ZN 0.000413563
3 *939:B2 *937:B1 8.81341e-06
4 *939:B2 *939:B1 0.000131651
5 *939:B2 *952:A1 0.00125664
6 *939:B2 *953:A2 8.05947e-05
7 *939:B2 *104:35 0.000141897
8 *934:B1 *939:B2 2.9378e-06
9 *937:A2 *939:B2 0.0011426
10 *77:21 *939:B2 0.000186983
*RES
1 *934:ZN *939:B2 15.308 
*END

*D_NET *79 0.0036325
*CONN
*I *936:I I *D gf180mcu_fd_sc_mcu7t5v0__clkinv_1
*I *937:B1 I *D gf180mcu_fd_sc_mcu7t5v0__oai22_1
*I *935:Z O *D gf180mcu_fd_sc_mcu7t5v0__xor2_1
*CAP
1 *936:I 0.000110177
2 *937:B1 0.000186505
3 *935:Z 0.000565693
4 *79:14 0.000862374
5 *936:I *953:A2 7.60086e-05
6 *936:I *1017:I 0
7 *936:I *80:8 9.58397e-05
8 *936:I *122:25 0.000593185
9 *936:I *122:31 7.98484e-05
10 *937:B1 *939:A1 0.000124862
11 *937:B1 *939:B1 9.88736e-06
12 *937:B1 *939:C2 4.58601e-06
13 *937:B1 *952:A1 0.00032652
14 *937:B1 *953:A2 0.00021548
15 *937:B1 *122:31 0
16 *79:14 *953:A2 0.000117908
17 *934:B2 *937:B1 2.6126e-05
18 *937:B2 *937:B1 4.58601e-06
19 *939:B2 *937:B1 8.81341e-06
20 *50:8 *79:14 9.26705e-05
21 *50:19 *79:14 0.000131429
*RES
1 *935:Z *79:14 13.104 
2 *79:14 *937:B1 10.976 
3 *79:14 *936:I 10.748 
*END

*D_NET *80 0.00130779
*CONN
*I *939:A2 I *D gf180mcu_fd_sc_mcu7t5v0__oai222_1
*I *953:A2 I *D gf180mcu_fd_sc_mcu7t5v0__nand2_1
*I *936:ZN O *D gf180mcu_fd_sc_mcu7t5v0__clkinv_1
*CAP
1 *939:A2 0
2 *953:A2 0.000196826
3 *936:ZN 0.00014975
4 *80:8 0.000346576
5 *953:A2 *952:A1 9.88736e-06
6 *953:A2 *122:31 5.87561e-06
7 *80:8 *1017:I 1.30476e-05
8 *936:I *953:A2 7.60086e-05
9 *936:I *80:8 9.58397e-05
10 *937:B1 *953:A2 0.00021548
11 *939:B2 *953:A2 8.05947e-05
12 *79:14 *953:A2 0.000117908
*RES
1 *936:ZN *80:8 5.716 
2 *80:8 *953:A2 15.324 
3 *80:8 *939:A2 4.5 
*END

*D_NET *81 0.000369025
*CONN
*I *939:B1 I *D gf180mcu_fd_sc_mcu7t5v0__oai222_1
*I *937:ZN O *D gf180mcu_fd_sc_mcu7t5v0__oai22_1
*CAP
1 *939:B1 9.97757e-05
2 *937:ZN 9.97757e-05
3 *939:B1 *939:C2 2.7935e-05
4 *937:B1 *939:B1 9.88736e-06
5 *939:B2 *939:B1 0.000131651
*RES
1 *937:ZN *939:B1 9.836 
*END

*D_NET *82 0.00363171
*CONN
*I *954:A2 I *D gf180mcu_fd_sc_mcu7t5v0__nand2_1
*I *939:C1 I *D gf180mcu_fd_sc_mcu7t5v0__oai222_1
*I *941:A2 I *D gf180mcu_fd_sc_mcu7t5v0__aoi22_1
*I *938:Z O *D gf180mcu_fd_sc_mcu7t5v0__xor2_1
*CAP
1 *954:A2 0
2 *939:C1 0.000320069
3 *941:A2 0.000197392
4 *938:Z 0.000526762
5 *82:10 0.000758524
6 *82:8 0.000767826
7 *939:C1 *941:A1 0
8 *939:C1 *1017:I 0.000531137
9 *939:C1 *97:19 0
10 *941:A2 *941:A1 0.000101971
11 *941:A2 *944:A1 0.000237987
12 *941:A2 *944:A2 0.000101612
13 *941:A2 *947:A1 8.84331e-05
*RES
1 *938:Z *82:8 12.572 
2 *82:8 *82:10 1.596 
3 *82:10 *941:A2 11.128 
4 *82:10 *939:C1 11.964 
5 *82:8 *954:A2 9 
*END

*D_NET *83 0.00159062
*CONN
*I *1017:I I *D gf180mcu_fd_sc_mcu7t5v0__clkbuf_1
*I *939:ZN O *D gf180mcu_fd_sc_mcu7t5v0__oai222_1
*CAP
1 *1017:I 0.000500061
2 *939:ZN 0.000500061
3 *1017:I *944:A1 4.63109e-05
4 *1017:I *944:A2 0
5 *1017:I *122:16 0
6 *1017:I *122:25 0
7 *936:I *1017:I 0
8 *939:C1 *1017:I 0.000531137
9 *80:8 *1017:I 1.30476e-05
*RES
1 *939:ZN *1017:I 13.18 
*END

*D_NET *84 0.00429259
*CONN
*I *955:A2 I *D gf180mcu_fd_sc_mcu7t5v0__nand2_1
*I *943:A2 I *D gf180mcu_fd_sc_mcu7t5v0__oai22_1
*I *941:B1 I *D gf180mcu_fd_sc_mcu7t5v0__aoi22_1
*I *940:Z O *D gf180mcu_fd_sc_mcu7t5v0__xor2_1
*CAP
1 *955:A2 8.12066e-05
2 *943:A2 0
3 *941:B1 0.000218982
4 *940:Z 0.000324464
5 *84:14 0.000347006
6 *84:10 0.000533693
7 *941:B1 *941:A1 3.08902e-05
8 *941:B1 *944:A2 3.62081e-05
9 *941:B1 *944:B 0.000672035
10 *955:A2 *904:I 8.55327e-05
11 *955:A2 *122:16 0.000547958
12 *84:14 *904:I 0.000492822
13 *940:A2 *84:10 0
14 *974:B *955:A2 9.88736e-06
15 *48:6 *955:A2 0.000141888
16 *53:12 *84:10 0.000379806
17 *53:12 *84:14 0.000390216
*RES
1 *940:Z *84:10 12.04 
2 *84:10 *84:14 7.312 
3 *84:14 *941:B1 6.78 
4 *84:14 *943:A2 4.5 
5 *84:10 *955:A2 10.444 
*END

*D_NET *85 0.000550398
*CONN
*I *944:A2 I *D gf180mcu_fd_sc_mcu7t5v0__aoi21_1
*I *941:ZN O *D gf180mcu_fd_sc_mcu7t5v0__aoi22_1
*CAP
1 *944:A2 0.000188837
2 *941:ZN 0.000188837
3 *944:A2 *944:A1 3.23347e-05
4 *944:A2 *944:B 2.57058e-06
5 *941:A2 *944:A2 0.000101612
6 *941:B1 *944:A2 3.62081e-05
7 *1017:I *944:A2 0
*RES
1 *941:ZN *944:A2 10.52 
*END

*D_NET *86 0.0034716
*CONN
*I *943:B1 I *D gf180mcu_fd_sc_mcu7t5v0__oai22_1
*I *956:A2 I *D gf180mcu_fd_sc_mcu7t5v0__nand2_1
*I *945:A2 I *D gf180mcu_fd_sc_mcu7t5v0__aoi21_1
*I *942:Z O *D gf180mcu_fd_sc_mcu7t5v0__xor2_1
*CAP
1 *943:B1 0.000154238
2 *956:A2 0
3 *945:A2 1.55599e-05
4 *942:Z 0
5 *86:8 0.000101262
6 *86:6 0.00023994
7 *943:B1 *943:B2 0.000363995
8 *943:B1 *114:12 0.000206325
9 *945:A2 *943:B2 0.00017557
10 *86:8 *943:B2 0.000502146
11 *86:8 *114:12 0.00021548
12 *942:A2 *943:B1 4.71809e-05
13 *974:B *943:B1 0.000174563
14 *974:B *945:A2 0.000157865
15 *974:B *86:8 0.000804306
16 *1002:I *943:B1 2.89664e-05
17 *53:12 *943:B1 0.000149579
18 *54:10 *943:B1 0.000134622
*RES
1 *942:Z *86:6 9 
2 *86:6 *86:8 3.116 
3 *86:8 *945:A2 9.836 
4 *86:8 *956:A2 9 
5 *86:6 *943:B1 11.584 
*END

*D_NET *87 0.00192014
*CONN
*I *944:B I *D gf180mcu_fd_sc_mcu7t5v0__aoi21_1
*I *943:ZN O *D gf180mcu_fd_sc_mcu7t5v0__oai22_1
*CAP
1 *944:B 0.000178972
2 *943:ZN 0.000178972
3 *944:B *941:A1 0.000144162
4 *944:B *941:B2 0.00027332
5 *944:B *943:A1 0.000374159
6 *944:B *102:71 9.59517e-05
7 *941:B1 *944:B 0.000672035
8 *944:A2 *944:B 2.57058e-06
*RES
1 *943:ZN *944:B 12.42 
*END

*D_NET *88 0.00284283
*CONN
*I *947:A1 I *D gf180mcu_fd_sc_mcu7t5v0__oai211_1
*I *944:ZN O *D gf180mcu_fd_sc_mcu7t5v0__aoi21_1
*CAP
1 *947:A1 0.000997429
2 *944:ZN 0.000997429
3 *947:A1 *904:I 1.2339e-05
4 *947:A1 *925:A1 0
5 *947:A1 *944:A1 0.000142809
6 *947:A1 *946:I 0
7 *947:A1 *947:B 9.17202e-06
8 *947:A1 *948:A2 0.000313283
9 *947:A1 *117:93 0.000269848
10 *947:A1 *121:22 1.20889e-05
11 *925:A2 *947:A1 0
12 *941:A2 *947:A1 8.84331e-05
*RES
1 *944:ZN *947:A1 24.916 
*END

*D_NET *89 0.000998382
*CONN
*I *946:I I *D gf180mcu_fd_sc_mcu7t5v0__clkinv_1
*I *945:ZN O *D gf180mcu_fd_sc_mcu7t5v0__aoi21_1
*CAP
1 *946:I 0.000460918
2 *945:ZN 0.000460918
3 *946:I *945:B 4.58601e-06
4 *947:A1 *946:I 0
5 *3:10 *946:I 7.19603e-05
*RES
1 *945:ZN *946:I 11.812 
*END

*D_NET *90 0.000240558
*CONN
*I *947:A2 I *D gf180mcu_fd_sc_mcu7t5v0__oai211_1
*I *946:ZN O *D gf180mcu_fd_sc_mcu7t5v0__clkinv_1
*CAP
1 *947:A2 0.000120279
2 *946:ZN 0.000120279
*RES
1 *946:ZN *947:A2 9.836 
*END

*D_NET *91 0.00636732
*CONN
*I *948:A2 I *D gf180mcu_fd_sc_mcu7t5v0__aoi21_1
*I *947:ZN O *D gf180mcu_fd_sc_mcu7t5v0__oai211_1
*CAP
1 *948:A2 0.00089141
2 *947:ZN 0.00089141
3 *948:A2 *904:I 0.000242799
4 *948:A2 *947:B 0.000310356
5 *948:A2 *991:CLK 0.000128373
6 *948:A2 *117:99 0.00125902
7 *947:A1 *948:A2 0.000313283
8 *964:A2 *948:A2 0.000892638
9 *964:B *948:A2 0.000723661
10 *968:A2 *948:A2 0.000520493
11 *977:D *948:A2 0.000193878
*RES
1 *947:ZN *948:A2 30.16 
*END

*D_NET *92 0.00662271
*CONN
*I *957:A1 I *D gf180mcu_fd_sc_mcu7t5v0__nor2_1
*I *929:A1 I *D gf180mcu_fd_sc_mcu7t5v0__and2_1
*I *986:Q O *D gf180mcu_fd_sc_mcu7t5v0__dffq_1
*CAP
1 *957:A1 0
2 *929:A1 0.000569348
3 *986:Q 0.000663788
4 *92:12 0.00123314
5 *929:A1 *958:A1 0.000145096
6 *929:A1 *958:C 0.000421322
7 *929:A1 *960:C 0.000356844
8 *929:A1 *961:A1 0.000165226
9 *929:A1 *93:19 0
10 *929:A1 *94:21 0.000273439
11 *929:A1 *120:43 0.000623818
12 *929:A1 *120:45 0.000713096
13 *929:A1 *120:47 0.000475449
14 *92:12 *957:A2 9.88736e-06
15 *92:12 *958:C 9.45347e-06
16 *958:A2 *92:12 7.24161e-06
17 *958:B *92:12 0.000113292
18 *960:B *929:A1 0.00020847
19 *962:B *929:A1 0.000594335
20 *986:D *92:12 3.94662e-05
*RES
1 *986:Q *92:12 17.908 
2 *92:12 *929:A1 22.164 
3 *92:12 *957:A1 4.5 
*END

*D_NET *93 0.00235418
*CONN
*I *931:B2 I *D gf180mcu_fd_sc_mcu7t5v0__aoi22_1
*I *928:A1 I *D gf180mcu_fd_sc_mcu7t5v0__or2_1
*I *959:A1 I *D gf180mcu_fd_sc_mcu7t5v0__nor2_1
*I *987:Q O *D gf180mcu_fd_sc_mcu7t5v0__dffq_1
*CAP
1 *931:B2 3.22256e-05
2 *928:A1 0
3 *959:A1 0.000220439
4 *987:Q 0.000120278
5 *93:19 0.000284141
6 *93:8 0.000592632
7 *931:B2 *928:A2 0.000412903
8 *931:B2 *949:A2 7.24795e-05
9 *931:B2 *94:21 1.18942e-05
10 *93:8 *979:CLK 0.000201948
11 *93:8 *122:121 0
12 *93:19 *949:A2 8.8586e-05
13 *93:19 *961:A1 4.72989e-05
14 *93:19 *94:21 2.97354e-05
15 *929:A1 *93:19 0
16 *931:A1 *931:B2 0.000222333
17 *962:B *959:A1 0
18 *979:D *93:8 1.72912e-05
*RES
1 *987:Q *93:8 10.14 
2 *93:8 *959:A1 10.444 
3 *93:8 *93:19 2.204 
4 *93:19 *928:A1 9 
5 *93:19 *931:B2 10.292 
*END

*D_NET *94 0.00505096
*CONN
*I *927:B I *D gf180mcu_fd_sc_mcu7t5v0__oai21_1
*I *932:A1 I *D gf180mcu_fd_sc_mcu7t5v0__nor3_1
*I *961:A1 I *D gf180mcu_fd_sc_mcu7t5v0__oai21_1
*I *988:Q O *D gf180mcu_fd_sc_mcu7t5v0__dffq_1
*CAP
1 *927:B 0.000338541
2 *932:A1 0
3 *961:A1 0.000157059
4 *988:Q 0.000292853
5 *94:21 0.000945387
6 *94:8 0.00105676
7 *961:A1 *979:CLK 4.27813e-05
8 *961:A1 *122:108 5.76373e-06
9 *961:A1 *122:121 0
10 *94:8 *122:108 0.000221377
11 *94:8 *122:121 0.000147313
12 *94:21 *928:A2 9.03087e-05
13 *94:21 *929:A2 9.77378e-05
14 *929:A1 *961:A1 0.000165226
15 *929:A1 *94:21 0.000273439
16 *931:B2 *94:21 1.18942e-05
17 *933:A2 *927:B 0
18 *934:A2 *927:B 5.98764e-05
19 *934:A2 *94:21 0.000393285
20 *49:24 *927:B 0
21 *49:32 *927:B 0.000668453
22 *70:8 *927:B 5.87561e-06
23 *77:10 *927:B 0
24 *77:10 *94:21 0
25 *93:19 *961:A1 4.72989e-05
26 *93:19 *94:21 2.97354e-05
*RES
1 *988:Q *94:8 11.356 
2 *94:8 *961:A1 10.672 
3 *94:8 *94:21 6.764 
4 *94:21 *932:A1 9 
5 *94:21 *927:B 12.04 
*END

*D_NET *95 0.00261985
*CONN
*I *902:I I *D gf180mcu_fd_sc_mcu7t5v0__clkinv_1
*I *963:A1 I *D gf180mcu_fd_sc_mcu7t5v0__oai21_1
*I *989:Q O *D gf180mcu_fd_sc_mcu7t5v0__dffq_1
*CAP
1 *902:I 0.000339331
2 *963:A1 0.000152806
3 *989:Q 2.71287e-05
4 *95:8 0.000519266
5 *902:I *952:A1 9.42866e-05
6 *902:I *963:B 0.000376925
7 *902:I *96:23 0
8 *902:I *117:99 6.7497e-05
9 *902:I *120:18 2.97354e-06
10 *902:I *122:33 3.46377e-05
11 *963:A1 *963:B 2.17248e-05
12 *963:A1 *991:CLK 0
13 *963:A1 *120:18 2.08148e-05
14 *95:8 *991:CLK 4.97712e-06
15 *964:B *963:A1 0.00026286
16 *964:B *95:8 1.44832e-05
17 *968:A2 *902:I 0
18 *968:A2 *963:A1 0
19 *968:B *902:I 0.000657859
20 *1002:I *902:I 2.22758e-05
*RES
1 *989:Q *95:8 9.228 
2 *95:8 *963:A1 10.368 
3 *95:8 *902:I 13.56 
*END

*D_NET *96 0.00374877
*CONN
*I *939:A1 I *D gf180mcu_fd_sc_mcu7t5v0__oai222_1
*I *901:I I *D gf180mcu_fd_sc_mcu7t5v0__clkinv_1
*I *965:A1 I *D gf180mcu_fd_sc_mcu7t5v0__oai21_1
*I *990:Q O *D gf180mcu_fd_sc_mcu7t5v0__dffq_1
*CAP
1 *939:A1 0.000428266
2 *901:I 0
3 *965:A1 0.000124602
4 *990:Q 0.000335627
5 *96:23 0.000748767
6 *96:8 0.00078073
7 *939:A1 *939:C2 0.000101578
8 *939:A1 *952:A1 3.11588e-05
9 *939:A1 *97:19 0.000111867
10 *965:A1 *963:B 0.000269848
11 *965:A1 *122:33 0.000308479
12 *96:8 *965:B 1.91917e-06
13 *96:23 *122:33 0.000335667
14 *902:I *96:23 0
15 *934:B2 *96:8 0
16 *934:B2 *96:23 0
17 *937:B1 *939:A1 0.000124862
18 *937:B2 *96:23 1.52691e-05
19 *1002:I *96:8 3.01291e-05
*RES
1 *990:Q *96:8 11.052 
2 *96:8 *965:A1 10.444 
3 *96:8 *96:23 6.628 
4 *96:23 *901:I 4.5 
5 *96:23 *939:A1 16.844 
*END

*D_NET *97 0.00378898
*CONN
*I *939:C2 I *D gf180mcu_fd_sc_mcu7t5v0__oai222_1
*I *967:A1 I *D gf180mcu_fd_sc_mcu7t5v0__nor2_1
*I *941:A1 I *D gf180mcu_fd_sc_mcu7t5v0__aoi22_1
*I *991:Q O *D gf180mcu_fd_sc_mcu7t5v0__dffq_1
*CAP
1 *939:C2 0.000168761
2 *967:A1 0.000123339
3 *941:A1 0.000438327
4 *991:Q 0
5 *97:19 0.000556206
6 *97:4 0.000702434
7 *939:C2 *952:A1 0.000372003
8 *941:A1 *944:A1 8.55327e-05
9 *941:A1 *102:71 0.000161532
10 *967:A1 *952:A1 0.000657859
11 *97:19 *102:66 0
12 *97:19 *102:71 0
13 *937:B1 *939:C2 4.58601e-06
14 *939:A1 *939:C2 0.000101578
15 *939:A1 *97:19 0.000111867
16 *939:B1 *939:C2 2.7935e-05
17 *939:C1 *941:A1 0
18 *939:C1 *97:19 0
19 *941:A2 *941:A1 0.000101971
20 *941:B1 *941:A1 3.08902e-05
21 *944:B *941:A1 0.000144162
22 *1002:I *97:19 0
*RES
1 *991:Q *97:4 4.5 
2 *97:4 *941:A1 8.224 
3 *97:4 *97:19 6.248 
4 *97:19 *967:A1 10.596 
5 *97:19 *939:C2 10.672 
*END

*D_NET *98 0.00766865
*CONN
*I *943:A1 I *D gf180mcu_fd_sc_mcu7t5v0__oai22_1
*I *941:B2 I *D gf180mcu_fd_sc_mcu7t5v0__aoi22_1
*I *970:A1 I *D gf180mcu_fd_sc_mcu7t5v0__aoi22_1
*I *992:Q O *D gf180mcu_fd_sc_mcu7t5v0__dffq_1
*CAP
1 *943:A1 0.000113463
2 *941:B2 4.71701e-05
3 *970:A1 0.00046314
4 *992:Q 0
5 *98:21 0.000753089
6 *98:6 0.00105559
7 *941:B2 *1000:I 7.62336e-05
8 *941:B2 *102:71 0.000106801
9 *943:A1 *1000:I 1.76898e-05
10 *970:A1 *992:CLK 0.000883544
11 *970:A1 *995:CLK 2.43241e-05
12 *970:A1 *105:30 0.000374281
13 *98:21 *925:A1 0.000126113
14 *98:21 *947:B 2.09451e-05
15 *98:21 *995:CLK 1.18942e-05
16 *98:21 *106:12 0.000197225
17 *944:B *941:B2 0.00027332
18 *944:B *943:A1 0.000374159
19 *969:A2 *970:A1 0.000110772
20 *971:A2 *970:A1 0.000135583
21 *1002:I *943:A1 3.48203e-05
22 *56:10 *98:21 0.00068962
23 *56:12 *98:21 0.000914003
24 *56:18 *970:A1 0.000268959
25 *56:18 *98:21 0.000595906
*RES
1 *992:Q *98:6 9 
2 *98:6 *970:A1 14.016 
3 *98:6 *98:21 12.176 
4 *98:21 *941:B2 5.488 
5 *98:21 *943:A1 5.716 
*END

*D_NET *99 0.00812843
*CONN
*I *943:B2 I *D gf180mcu_fd_sc_mcu7t5v0__oai22_1
*I *945:A1 I *D gf180mcu_fd_sc_mcu7t5v0__aoi21_1
*I *972:A1 I *D gf180mcu_fd_sc_mcu7t5v0__aoi22_1
*I *993:Q O *D gf180mcu_fd_sc_mcu7t5v0__dffq_1
*CAP
1 *943:B2 0.000398174
2 *945:A1 4.00762e-05
3 *972:A1 0.00046557
4 *993:Q 0.00013474
5 *99:27 0.00113387
6 *99:8 0.00129593
7 *943:B2 *912:A1 1.0961e-05
8 *943:B2 *956:A1 0.00132463
9 *943:B2 *985:CLK 5.13352e-06
10 *943:B2 *114:6 1.3758e-05
11 *943:B2 *114:12 0.000335667
12 *945:A1 *956:A1 0
13 *972:A1 *105:47 2.52985e-05
14 *972:A1 *117:25 0.000195532
15 *99:8 *105:47 1.21002e-05
16 *99:27 *945:B 3.26302e-05
17 *99:27 *993:CLK 2.88798e-05
18 *99:27 *105:47 1.82734e-05
19 *912:A2 *943:B2 0.000113773
20 *942:A2 *943:B2 1.91917e-06
21 *943:B1 *943:B2 0.000363995
22 *945:A2 *943:B2 0.00017557
23 *974:B *943:B2 2.29928e-05
24 *974:B *99:27 1.09162e-05
25 *975:A1 *972:A1 0.000316078
26 *1002:I *943:B2 0.000255714
27 *3:10 *945:A1 4.97386e-06
28 *3:10 *99:27 0.000876799
29 *56:10 *943:B2 1.2339e-05
30 *86:8 *943:B2 0.000502146
*RES
1 *993:Q *99:8 5.26 
2 *99:8 *972:A1 17.3 
3 *99:8 *99:27 10.428 
4 *99:27 *945:A1 9.228 
5 *99:27 *943:B2 15.992 
*END

*D_NET *100 0.00139134
*CONN
*I *945:B I *D gf180mcu_fd_sc_mcu7t5v0__aoi21_1
*I *974:A1 I *D gf180mcu_fd_sc_mcu7t5v0__oai21_1
*I *994:Q O *D gf180mcu_fd_sc_mcu7t5v0__dffq_1
*CAP
1 *945:B 7.62925e-05
2 *974:A1 4.78535e-05
3 *994:Q 0.000210745
4 *100:10 0.000334891
5 *100:10 *121:8 6.17205e-05
6 *946:I *945:B 4.58601e-06
7 *974:B *945:B 0.000297035
8 *974:B *974:A1 8.62869e-05
9 *974:B *100:10 2.6126e-05
10 *3:10 *945:B 6.29175e-05
11 *3:10 *974:A1 6.05288e-05
12 *3:10 *100:10 8.97311e-05
13 *99:27 *945:B 3.26302e-05
*RES
1 *994:Q *100:10 10.52 
2 *100:10 *974:A1 9.532 
3 *100:10 *945:B 10.064 
*END

*D_NET *101 0.00194402
*CONN
*I *947:B I *D gf180mcu_fd_sc_mcu7t5v0__oai211_1
*I *925:A1 I *D gf180mcu_fd_sc_mcu7t5v0__nand2_1
*I *995:Q O *D gf180mcu_fd_sc_mcu7t5v0__dffq_1
*CAP
1 *947:B 9.24014e-05
2 *925:A1 0.000271803
3 *995:Q 0
4 *101:6 0.000364205
5 *925:A1 *117:93 0
6 *947:B *904:I 0.000362608
7 *925:A2 *925:A1 0.000386421
8 *947:A1 *925:A1 0
9 *947:A1 *947:B 9.17202e-06
10 *948:A2 *947:B 0.000310356
11 *98:21 *925:A1 0.000126113
12 *98:21 *947:B 2.09451e-05
*RES
1 *995:Q *101:6 9 
2 *101:6 *925:A1 11.584 
3 *101:6 *947:B 10.368 
*END

*D_NET *102 0.00770211
*CONN
*I *1000:I I *D gf180mcu_fd_sc_mcu7t5v0__clkbuf_16
*I *998:I I *D gf180mcu_fd_sc_mcu7t5v0__clkbuf_16
*I *997:I I *D gf180mcu_fd_sc_mcu7t5v0__clkbuf_16
*I *999:I I *D gf180mcu_fd_sc_mcu7t5v0__clkbuf_16
*I *996:Z O *D gf180mcu_fd_sc_mcu7t5v0__clkbuf_16
*CAP
1 *1000:I 4.27111e-05
2 *998:I 7.42328e-05
3 *997:I 0
4 *999:I 7.41739e-05
5 *996:Z 0.000139943
6 *102:71 0.000340183
7 *102:66 0.000358469
8 *102:50 0.000177907
9 *102:43 0.000202085
10 *102:36 0.000196209
11 *102:32 0.000883693
12 *102:27 0.000832858
13 *102:11 0.000711275
14 *102:6 0.000669083
15 *999:I *985:CLK 0.000114958
16 *102:6 *968:A1 9.18587e-05
17 *102:11 *904:I 0.000271078
18 *102:11 *967:A2 0
19 *102:11 *968:A1 0.000110089
20 *102:11 *985:CLK 1.76272e-05
21 *102:11 *106:12 4.50449e-05
22 *102:11 *117:99 2.96977e-05
23 *102:11 *121:22 0.0002988
24 *102:27 *967:A2 3.01612e-05
25 *102:32 *966:A1 6.63182e-06
26 *102:32 *967:A2 1.6151e-05
27 *102:32 *968:A1 2.40654e-06
28 *102:32 *120:8 7.59884e-05
29 *941:A1 *102:71 0.000161532
30 *941:B2 *1000:I 7.62336e-05
31 *941:B2 *102:71 0.000106801
32 *943:A1 *1000:I 1.76898e-05
33 *944:B *102:71 9.59517e-05
34 *966:B *102:32 0.00021931
35 *991:D *102:6 9.18587e-05
36 *991:D *102:11 6.88377e-05
37 *991:D *102:27 7.74548e-05
38 *991:D *102:32 3.88008e-05
39 *1002:I *1000:I 9.25919e-05
40 *1002:I *102:32 0
41 *1002:I *102:66 7.74477e-05
42 *1002:I *102:71 0.000764281
43 *56:10 *102:11 0
44 *97:19 *102:66 0
45 *97:19 *102:71 0
*RES
1 *996:Z *102:6 5.03471 
2 *102:6 *102:11 5.24129 
3 *102:11 *999:I 5.184 
4 *996:Z *102:27 5.03471 
5 *102:27 *102:32 5.24129 
6 *102:32 *102:36 0.684 
7 *102:36 *997:I 4.5 
8 *102:36 *102:43 0.684 
9 *102:43 *102:50 0.912 
10 *102:50 *998:I 5.184 
11 *996:Z *102:66 5.03471 
12 *102:66 *102:71 4.22886 
13 *102:71 *1000:I 5.13243 
*END

*D_NET *103 0.00638589
*CONN
*I *979:CLK I *D gf180mcu_fd_sc_mcu7t5v0__dffq_1
*I *989:CLK I *D gf180mcu_fd_sc_mcu7t5v0__dffq_1
*I *988:CLK I *D gf180mcu_fd_sc_mcu7t5v0__dffq_1
*I *987:CLK I *D gf180mcu_fd_sc_mcu7t5v0__dffq_1
*I *986:CLK I *D gf180mcu_fd_sc_mcu7t5v0__dffq_1
*I *997:Z O *D gf180mcu_fd_sc_mcu7t5v0__clkbuf_16
*CAP
1 *979:CLK 0.000616167
2 *989:CLK 0.000680857
3 *988:CLK 0
4 *987:CLK 0.000198987
5 *986:CLK 0.000106619
6 *997:Z 0.000616167
7 *103:30 0.000769453
8 *103:10 0.000838072
9 *103:4 0.000621062
10 *979:CLK *959:A2 0
11 *979:CLK *120:39 0.000255722
12 *979:CLK *122:121 0
13 *986:CLK *958:C 0
14 *986:CLK *960:C 0
15 *989:CLK *964:A1 0
16 *103:10 *959:A2 3.94624e-05
17 *103:10 *960:C 0
18 *960:A2 *103:10 0
19 *960:A2 *103:30 0
20 *960:B *979:CLK 0
21 *960:B *103:10 6.55256e-05
22 *961:A1 *979:CLK 4.27813e-05
23 *962:A2 *989:CLK 0.000317494
24 *962:A2 *103:10 0.000490933
25 *962:A2 *103:30 0.000386421
26 *979:D *979:CLK 0
27 *987:D *987:CLK 0
28 *987:D *103:10 0.00013822
29 *988:D *979:CLK 0
30 *93:8 *979:CLK 0.000201948
*RES
1 *997:Z *103:4 4.5 
2 *103:4 *103:10 8.452 
3 *103:10 *986:CLK 9.532 
4 *103:10 *987:CLK 10.14 
5 *103:4 *103:30 0.988 
6 *103:30 *988:CLK 4.5 
7 *103:30 *989:CLK 8.832 
8 *997:Z *979:CLK 13.18 
*END

*D_NET *104 0.0093655
*CONN
*I *981:CLK I *D gf180mcu_fd_sc_mcu7t5v0__dffq_1
*I *980:CLK I *D gf180mcu_fd_sc_mcu7t5v0__dffq_1
*I *978:CLK I *D gf180mcu_fd_sc_mcu7t5v0__dffq_1
*I *991:CLK I *D gf180mcu_fd_sc_mcu7t5v0__dffq_1
*I *990:CLK I *D gf180mcu_fd_sc_mcu7t5v0__dffq_1
*I *998:Z O *D gf180mcu_fd_sc_mcu7t5v0__clkbuf_16
*CAP
1 *981:CLK 0.000167502
2 *980:CLK 0
3 *978:CLK 0.000674176
4 *991:CLK 0.000822294
5 *990:CLK 0
6 *998:Z 0.00157696
7 *104:35 0.00120905
8 *104:12 0.00169688
9 *978:CLK *107:8 0.000441063
10 *978:CLK *107:10 0
11 *978:CLK *107:16 0
12 *991:CLK *963:B 1.15244e-05
13 *991:CLK *966:A1 5.09899e-05
14 *991:CLK *117:99 1.74287e-05
15 *991:CLK *122:108 0
16 *104:12 *122:108 0
17 *104:35 *906:A1 0
18 *104:35 *926:A1 3.83835e-06
19 *104:35 *951:B 0
20 *104:35 *107:8 5.01124e-05
21 *927:A2 *104:35 0.00013201
22 *934:A2 *104:35 0.000643993
23 *934:B1 *104:35 1.65795e-06
24 *939:B2 *104:35 0.000141897
25 *948:A2 *991:CLK 0.000128373
26 *951:A2 *104:35 0.000162031
27 *963:A1 *991:CLK 0
28 *964:B *991:CLK 0
29 *966:A2 *991:CLK 0.000441055
30 *966:A2 *104:12 0.000379283
31 *968:A2 *991:CLK 6.68164e-05
32 *980:D *104:35 5.55495e-05
33 *990:D *104:12 0.00014967
34 *49:32 *104:35 2.03665e-05
35 *70:8 *104:35 0.000316002
36 *95:8 *991:CLK 4.97712e-06
*RES
1 *998:Z *104:12 19.884 
2 *104:12 *990:CLK 4.5 
3 *104:12 *991:CLK 10.276 
4 *998:Z *104:35 10.124 
5 *104:35 *978:CLK 18.668 
6 *104:35 *980:CLK 4.5 
7 *998:Z *981:CLK 9.988 
*END

*D_NET *105 0.00834923
*CONN
*I *994:CLK I *D gf180mcu_fd_sc_mcu7t5v0__dffq_1
*I *993:CLK I *D gf180mcu_fd_sc_mcu7t5v0__dffq_1
*I *992:CLK I *D gf180mcu_fd_sc_mcu7t5v0__dffq_1
*I *995:CLK I *D gf180mcu_fd_sc_mcu7t5v0__dffq_1
*I *977:CLK I *D gf180mcu_fd_sc_mcu7t5v0__dffq_1
*I *999:Z O *D gf180mcu_fd_sc_mcu7t5v0__clkbuf_16
*CAP
1 *994:CLK 0
2 *993:CLK 0.000637063
3 *992:CLK 6.1052e-05
4 *995:CLK 0.000129098
5 *977:CLK 0.000480845
6 *999:Z 0.000121254
7 *105:47 0.00146116
8 *105:30 0.000891285
9 *105:8 0.000826832
10 *105:6 0.000344279
11 *977:CLK *913:A1 1.97747e-05
12 *977:CLK *924:A2 0.000431543
13 *977:CLK *121:12 0
14 *977:CLK *121:50 6.17803e-05
15 *995:CLK *121:50 2.70169e-05
16 *105:6 *121:12 0
17 *105:8 *121:12 0
18 *970:A1 *992:CLK 0.000883544
19 *970:A1 *995:CLK 2.43241e-05
20 *970:A1 *105:30 0.000374281
21 *972:A1 *105:47 2.52985e-05
22 *994:D *105:47 5.55572e-05
23 *3:10 *993:CLK 0.000137077
24 *56:18 *992:CLK 0.000885831
25 *56:18 *105:30 0.000399191
26 *98:21 *995:CLK 1.18942e-05
27 *99:8 *105:47 1.21002e-05
28 *99:27 *993:CLK 2.88798e-05
29 *99:27 *105:47 1.82734e-05
*RES
1 *999:Z *105:6 5.488 
2 *105:6 *105:8 1.14 
3 *105:8 *977:CLK 7.768 
4 *105:8 *995:CLK 14.488 
5 *105:6 *105:30 5.488 
6 *105:30 *992:CLK 11.356 
7 *105:30 *105:47 13.864 
8 *105:47 *993:CLK 13.484 
9 *105:47 *994:CLK 9 
*END

*D_NET *106 0.00844736
*CONN
*I *982:CLK I *D gf180mcu_fd_sc_mcu7t5v0__dffq_1
*I *984:CLK I *D gf180mcu_fd_sc_mcu7t5v0__dffq_1
*I *983:CLK I *D gf180mcu_fd_sc_mcu7t5v0__dffq_1
*I *985:CLK I *D gf180mcu_fd_sc_mcu7t5v0__dffq_1
*I *1001:I I *D gf180mcu_fd_sc_mcu7t5v0__clkbuf_2
*I *1000:Z O *D gf180mcu_fd_sc_mcu7t5v0__clkbuf_16
*CAP
1 *982:CLK 0.000738584
2 *984:CLK 0.000308293
3 *983:CLK 8.92547e-05
4 *985:CLK 0.000751607
5 *1001:I 0
6 *1000:Z 0.00138276
7 *106:12 0.000998234
8 *982:CLK *122:16 5.76373e-06
9 *982:CLK *122:25 0.000281547
10 *983:CLK *122:16 0.000386421
11 *984:CLK *956:A1 0.000140328
12 *984:CLK *122:16 0.000829797
13 *984:CLK *122:77 8.55327e-05
14 *985:CLK *956:A1 9.4717e-05
15 *106:12 *904:I 0.000791089
16 *943:B2 *985:CLK 5.13352e-06
17 *983:D *982:CLK 7.53241e-05
18 *984:D *984:CLK 0.00026286
19 *985:D *985:CLK 2.11734e-05
20 *999:I *985:CLK 0.000114958
21 *1002:I *985:CLK 0.000160503
22 *1003:I *985:CLK 0.000194014
23 *56:10 *985:CLK 0
24 *56:10 *106:12 0.000469567
25 *98:21 *106:12 0.000197225
26 *102:11 *985:CLK 1.76272e-05
27 *102:11 *106:12 4.50449e-05
*RES
1 *1000:Z *106:12 17.756 
2 *106:12 *1001:I 4.5 
3 *106:12 *985:CLK 18.972 
4 *1000:Z *983:CLK 9.988 
5 *1000:Z *984:CLK 12.344 
6 *1000:Z *982:CLK 14.244 
*END

*D_NET *107 0.00619653
*CONN
*I *906:A1 I *D gf180mcu_fd_sc_mcu7t5v0__and4_1
*I *905:A1 I *D gf180mcu_fd_sc_mcu7t5v0__and3_1
*I *926:A1 I *D gf180mcu_fd_sc_mcu7t5v0__aoi21_1
*I *949:A1 I *D gf180mcu_fd_sc_mcu7t5v0__nand2_1
*I *929:A2 I *D gf180mcu_fd_sc_mcu7t5v0__and2_1
*I *930:A1 I *D gf180mcu_fd_sc_mcu7t5v0__xnor2_1
*I *978:Q O *D gf180mcu_fd_sc_mcu7t5v0__dffq_1
*CAP
1 *906:A1 0.000274354
2 *905:A1 0
3 *926:A1 5.62961e-05
4 *949:A1 7.24325e-05
5 *929:A2 0.000404322
6 *930:A1 0
7 *978:Q 0.000193226
8 *107:62 0.000485491
9 *107:47 0.000479253
10 *107:16 0.000667709
11 *107:10 0.000721203
12 *107:8 0.000790429
13 *906:A1 *906:A2 6.20162e-05
14 *906:A1 *108:28 1.24299e-05
15 *929:A2 *928:A2 2.46426e-05
16 *929:A2 *949:A2 7.38041e-06
17 *949:A1 *949:A2 0.000203975
18 *107:10 *108:17 0.000277564
19 *107:16 *949:A2 1.45034e-05
20 *107:16 *108:8 1.38745e-05
21 *107:16 *108:17 8.76575e-05
22 *107:47 *108:17 9.75957e-06
23 *107:47 *108:28 6.33531e-06
24 *107:62 *926:B 4.28386e-05
25 *107:62 *108:28 1.76665e-05
26 *931:A1 *929:A2 1.47743e-05
27 *931:A2 *929:A2 9.49314e-05
28 *931:B1 *929:A2 3.17546e-05
29 *933:A2 *906:A1 2.40328e-06
30 *934:A2 *929:A2 0.000206333
31 *978:CLK *107:8 0.000441063
32 *978:CLK *107:10 0
33 *978:CLK *107:16 0
34 *980:D *926:A1 0.00018927
35 *980:D *107:47 0.000103327
36 *70:8 *906:A1 0
37 *74:6 *929:A2 5.87561e-06
38 *74:6 *107:16 2.97523e-05
39 *94:21 *929:A2 9.77378e-05
40 *104:35 *906:A1 0
41 *104:35 *926:A1 3.83835e-06
42 *104:35 *107:8 5.01124e-05
*RES
1 *978:Q *107:8 10.748 
2 *107:8 *107:10 3.268 
3 *107:10 *107:16 6.324 
4 *107:16 *930:A1 4.5 
5 *107:16 *929:A2 16.312 
6 *107:10 *949:A1 9.684 
7 *107:8 *107:47 1.292 
8 *107:47 *926:A1 9.684 
9 *107:47 *107:62 6.02 
10 *107:62 *905:A1 4.5 
11 *107:62 *906:A1 15.324 
*END

*D_NET *108 0.00563015
*CONN
*I *928:A2 I *D gf180mcu_fd_sc_mcu7t5v0__or2_1
*I *906:A2 I *D gf180mcu_fd_sc_mcu7t5v0__and4_1
*I *905:A2 I *D gf180mcu_fd_sc_mcu7t5v0__and3_1
*I *926:A2 I *D gf180mcu_fd_sc_mcu7t5v0__aoi21_1
*I *930:A2 I *D gf180mcu_fd_sc_mcu7t5v0__xnor2_1
*I *979:Q O *D gf180mcu_fd_sc_mcu7t5v0__dffq_1
*CAP
1 *928:A2 0.000205449
2 *906:A2 0.000110398
3 *905:A2 0
4 *926:A2 0
5 *930:A2 0
6 *979:Q 0.000173696
7 *108:28 0.000321278
8 *108:17 0.000828299
9 *108:8 0.000996565
10 *906:A2 *906:A4 2.40654e-06
11 *906:A2 *926:B 6.35236e-05
12 *906:A2 *109:12 0.000158809
13 *108:17 *949:A2 0.000300149
14 *108:28 *926:B 0.000340241
15 *906:A1 *906:A2 6.20162e-05
16 *906:A1 *108:28 1.24299e-05
17 *929:A2 *928:A2 2.46426e-05
18 *931:A1 *928:A2 2.47642e-05
19 *931:A2 *928:A2 4.58601e-06
20 *931:B1 *928:A2 0.000212922
21 *931:B2 *928:A2 0.000412903
22 *933:A2 *906:A2 0.00026286
23 *934:A2 *108:17 0
24 *950:A2 *108:17 8.15645e-05
25 *980:D *108:17 0.000213194
26 *980:D *108:28 8.8608e-05
27 *74:6 *928:A2 7.83779e-05
28 *74:6 *108:8 0.000147305
29 *94:21 *928:A2 9.03087e-05
30 *107:10 *108:17 0.000277564
31 *107:16 *108:8 1.38745e-05
32 *107:16 *108:17 8.76575e-05
33 *107:47 *108:17 9.75957e-06
34 *107:47 *108:28 6.33531e-06
35 *107:62 *108:28 1.76665e-05
*RES
1 *979:Q *108:8 5.716 
2 *108:8 *930:A2 4.5 
3 *108:8 *108:17 10.2 
4 *108:17 *926:A2 9 
5 *108:17 *108:28 1.976 
6 *108:28 *905:A2 9 
7 *108:28 *906:A2 10.368 
8 *108:8 *928:A2 15.78 
*END

*D_NET *109 0.00200188
*CONN
*I *906:A4 I *D gf180mcu_fd_sc_mcu7t5v0__and4_1
*I *905:A3 I *D gf180mcu_fd_sc_mcu7t5v0__and3_1
*I *926:B I *D gf180mcu_fd_sc_mcu7t5v0__aoi21_1
*I *980:Q O *D gf180mcu_fd_sc_mcu7t5v0__dffq_1
*CAP
1 *906:A4 0.00020705
2 *905:A3 0
3 *926:B 6.48797e-05
4 *980:Q 0.000231791
5 *109:12 0.000224994
6 *109:8 0.000598955
7 *906:A4 *906:A3 3.07734e-05
8 *906:A2 *906:A4 2.40654e-06
9 *906:A2 *926:B 6.35236e-05
10 *906:A2 *109:12 0.000158809
11 *933:A2 *906:A4 3.56172e-05
12 *107:62 *926:B 4.28386e-05
13 *108:28 *926:B 0.000340241
*RES
1 *980:Q *109:8 5.868 
2 *109:8 *109:12 5.792 
3 *109:12 *926:B 9.988 
4 *109:12 *905:A3 9 
5 *109:8 *906:A4 5.868 
*END

*D_NET *110 0.00252348
*CONN
*I *933:A1 I *D gf180mcu_fd_sc_mcu7t5v0__xor2_1
*I *906:A3 I *D gf180mcu_fd_sc_mcu7t5v0__and4_1
*I *981:Q O *D gf180mcu_fd_sc_mcu7t5v0__dffq_1
*CAP
1 *933:A1 0
2 *906:A3 0.000233946
3 *981:Q 0.000795262
4 *110:12 0.00102921
5 *906:A4 *906:A3 3.07734e-05
6 *933:A2 *906:A3 0.000434294
7 *50:8 *906:A3 0
8 *50:8 *110:12 0
*RES
1 *981:Q *110:12 18.516 
2 *110:12 *906:A3 6.856 
3 *110:12 *933:A1 4.5 
*END

*D_NET *111 0.00370136
*CONN
*I *909:A2 I *D gf180mcu_fd_sc_mcu7t5v0__nand4_1
*I *908:A2 I *D gf180mcu_fd_sc_mcu7t5v0__nand3_1
*I *907:A1 I *D gf180mcu_fd_sc_mcu7t5v0__nand2_1
*I *935:A1 I *D gf180mcu_fd_sc_mcu7t5v0__xor2_1
*I *982:Q O *D gf180mcu_fd_sc_mcu7t5v0__dffq_1
*CAP
1 *909:A2 0.000194245
2 *908:A2 2.6813e-05
3 *907:A1 0.00011317
4 *935:A1 0.000241849
5 *982:Q 0
6 *111:32 0.000625548
7 *111:17 0.00091827
8 *111:4 0.00064246
9 *907:A1 *938:A1 0
10 *908:A2 *938:A1 2.57058e-06
11 *909:A2 *909:A1 3.2657e-05
12 *111:32 *938:A1 0.000507482
13 *111:32 *112:8 7.53241e-05
14 *909:A4 *909:A2 3.87828e-05
15 *938:A2 *111:32 6.05076e-05
16 *940:A2 *909:A2 6.16029e-05
17 *940:A2 *111:32 3.73535e-05
18 *50:8 *935:A1 5.76373e-06
19 *50:19 *907:A1 3.08902e-05
20 *50:19 *935:A1 4.83329e-05
21 *50:19 *111:17 0
22 *50:27 *907:A1 3.00299e-05
23 *50:27 *111:32 7.71175e-06
*RES
1 *982:Q *111:4 4.5 
2 *111:4 *935:A1 6.172 
3 *111:4 *111:17 2.584 
4 *111:17 *907:A1 5.412 
5 *111:17 *111:32 3.724 
6 *111:32 *908:A2 4.728 
7 *111:32 *909:A2 6.096 
*END

*D_NET *112 0.00249939
*CONN
*I *938:A1 I *D gf180mcu_fd_sc_mcu7t5v0__xor2_1
*I *909:A1 I *D gf180mcu_fd_sc_mcu7t5v0__nand4_1
*I *908:A1 I *D gf180mcu_fd_sc_mcu7t5v0__nand3_1
*I *983:Q O *D gf180mcu_fd_sc_mcu7t5v0__dffq_1
*CAP
1 *938:A1 0.000117411
2 *909:A1 0.000185455
3 *908:A1 0
4 *983:Q 0
5 *112:8 0.000285152
6 *112:4 0.000217108
7 *909:A1 *909:A3 8.21221e-05
8 *907:A1 *938:A1 0
9 *908:A2 *938:A1 2.57058e-06
10 *909:A2 *909:A1 3.2657e-05
11 *909:A4 *909:A1 2.9301e-05
12 *938:A2 *938:A1 3.08902e-05
13 *940:A2 *909:A1 0.000162057
14 *940:A2 *112:8 0.000206711
15 *50:27 *909:A1 5.18299e-05
16 *50:27 *938:A1 0.000134045
17 *50:27 *112:8 0.000379274
18 *111:32 *938:A1 0.000507482
19 *111:32 *112:8 7.53241e-05
*RES
1 *983:Q *112:4 4.5 
2 *112:4 *112:8 1.52 
3 *112:8 *908:A1 4.5 
4 *112:8 *909:A1 15.096 
5 *112:4 *938:A1 6.4 
*END

*D_NET *113 0.0017471
*CONN
*I *940:A1 I *D gf180mcu_fd_sc_mcu7t5v0__xor2_1
*I *909:A3 I *D gf180mcu_fd_sc_mcu7t5v0__nand4_1
*I *984:Q O *D gf180mcu_fd_sc_mcu7t5v0__dffq_1
*CAP
1 *940:A1 0
2 *909:A3 0.000183042
3 *984:Q 0.00047084
4 *113:10 0.000653882
5 *909:A1 *909:A3 8.21221e-05
6 *909:A4 *909:A3 0
7 *940:A2 *113:10 2.6126e-05
8 *53:12 *909:A3 0.000331093
*RES
1 *984:Q *113:10 7.312 
2 *113:10 *909:A3 15.096 
3 *113:10 *940:A1 4.5 
*END

*D_NET *114 0.00180472
*CONN
*I *942:A1 I *D gf180mcu_fd_sc_mcu7t5v0__xor2_1
*I *911:A1 I *D gf180mcu_fd_sc_mcu7t5v0__and2_1
*I *912:A1 I *D gf180mcu_fd_sc_mcu7t5v0__nand2_1
*I *985:Q O *D gf180mcu_fd_sc_mcu7t5v0__dffq_1
*CAP
1 *942:A1 0
2 *911:A1 0
3 *912:A1 0.000151603
4 *985:Q 0.00017486
5 *114:12 0.00017267
6 *114:6 0.000195927
7 *114:12 *956:A1 8.62306e-05
8 *911:A2 *912:A1 7.21887e-05
9 *912:A2 *912:A1 5.4883e-05
10 *942:A2 *114:6 3.73627e-05
11 *943:B1 *114:12 0.000206325
12 *943:B2 *912:A1 1.0961e-05
13 *943:B2 *114:6 1.3758e-05
14 *943:B2 *114:12 0.000335667
15 *974:B *114:12 6.14664e-05
16 *1002:I *912:A1 1.53361e-05
17 *86:8 *114:12 0.00021548
*RES
1 *985:Q *114:6 5.488 
2 *114:6 *114:12 10.292 
3 *114:12 *912:A1 5.564 
4 *114:12 *911:A1 4.5 
5 *114:6 *942:A1 4.5 
*END

*D_NET *115 0.00232836
*CONN
*I *922:A1 I *D gf180mcu_fd_sc_mcu7t5v0__oai21_1
*I *921:A1 I *D gf180mcu_fd_sc_mcu7t5v0__nand2_1
*I *1005:Z O *D gf180mcu_fd_sc_mcu7t5v0__buf_2
*CAP
1 *922:A1 0
2 *921:A1 0.000160006
3 *1005:Z 0.000216109
4 *115:8 0.000376115
5 *921:A1 *918:A1 0.000153012
6 *921:A1 *920:A1 6.05474e-05
7 *921:A1 *124:12 0.000250562
8 *918:A2 *921:A1 5.66861e-05
9 *922:B *921:A1 3.73535e-05
10 *923:A1 *115:8 1.02578e-05
11 *923:A2 *115:8 0
12 *923:A4 *115:8 0.000386421
13 *47:32 *115:8 0.00037144
14 *47:34 *921:A1 9.88736e-06
15 *47:34 *115:8 0.00019207
16 *47:47 *921:A1 6.33531e-06
17 *47:51 *921:A1 2.25107e-05
18 *47:51 *115:8 2.9378e-06
19 *62:8 *921:A1 1.61066e-05
*RES
1 *1005:Z *115:8 7.236 
2 *115:8 *921:A1 15.324 
3 *115:8 *922:A1 4.5 
*END

*D_NET *116 0.00342103
*CONN
*I *913:A1 I *D gf180mcu_fd_sc_mcu7t5v0__nand2_1
*I *924:A1 I *D gf180mcu_fd_sc_mcu7t5v0__nand3_1
*I *1006:Z O *D gf180mcu_fd_sc_mcu7t5v0__buf_2
*CAP
1 *913:A1 0.000394049
2 *924:A1 0
3 *1006:Z 0.000526398
4 *116:8 0.000920447
5 *913:A1 *924:A2 0.00129435
6 *913:A1 *117:74 0
7 *913:A1 *121:22 0
8 *913:A1 *121:50 8.55242e-05
9 *116:8 *924:A2 0.000132933
10 *116:8 *117:74 0
11 *917:A1 *116:8 4.75539e-05
12 *977:CLK *913:A1 1.97747e-05
*RES
1 *1006:Z *116:8 12.42 
2 *116:8 *924:A1 9 
3 *116:8 *913:A1 12.8 
*END

*D_NET *117 0.0271231
*CONN
*I *971:A1 I *D gf180mcu_fd_sc_mcu7t5v0__nor2_1
*I *904:I I *D gf180mcu_fd_sc_mcu7t5v0__clkinv_1
*I *952:A1 I *D gf180mcu_fd_sc_mcu7t5v0__or2_1
*I *968:C I *D gf180mcu_fd_sc_mcu7t5v0__aoi211_1
*I *976:B I *D gf180mcu_fd_sc_mcu7t5v0__aoi21_1
*I *948:B I *D gf180mcu_fd_sc_mcu7t5v0__aoi21_1
*I *960:C I *D gf180mcu_fd_sc_mcu7t5v0__aoi211_1
*I *958:C I *D gf180mcu_fd_sc_mcu7t5v0__aoi211_1
*I *973:A1 I *D gf180mcu_fd_sc_mcu7t5v0__nor2_1
*I *1007:Z O *D gf180mcu_fd_sc_mcu7t5v0__buf_2
*CAP
1 *971:A1 0
2 *904:I 0.000849116
3 *952:A1 0.000615515
4 *968:C 3.42354e-05
5 *976:B 0
6 *948:B 0
7 *960:C 0.000118049
8 *958:C 0.000182305
9 *973:A1 7.82539e-05
10 *1007:Z 0.000117264
11 *117:99 0.000840404
12 *117:93 0.00143069
13 *117:74 0.00103023
14 *117:43 0.0015121
15 *117:35 0.00161286
16 *117:31 0.00129105
17 *117:25 0.00101432
18 *117:8 0.000959215
19 *904:I *122:16 3.7319e-05
20 *952:A1 *122:31 2.73945e-05
21 *952:A1 *122:33 0
22 *958:C *958:A1 0.000189146
23 *973:A1 *972:B2 8.55327e-05
24 *117:31 *903:I 0
25 *117:43 *957:A2 5.75752e-06
26 *117:43 *960:A1 5.87561e-06
27 *117:74 *924:A2 6.41945e-05
28 *117:74 *121:22 0.000166811
29 *117:74 *121:50 7.90729e-05
30 *117:93 *121:12 2.6126e-05
31 *117:93 *121:22 0.000490532
32 *117:99 *968:A1 0.000858374
33 *117:99 *121:22 0.000642134
34 *902:I *952:A1 9.42866e-05
35 *902:I *117:99 6.7497e-05
36 *913:A1 *117:74 0
37 *923:A1 *117:43 0
38 *923:A2 *117:43 0
39 *924:A3 *117:35 0.000855992
40 *924:A3 *117:43 0.000114726
41 *925:A1 *117:93 0
42 *929:A1 *958:C 0.000421322
43 *929:A1 *960:C 0.000356844
44 *937:B1 *952:A1 0.00032652
45 *939:A1 *952:A1 3.11588e-05
46 *939:B2 *952:A1 0.00125664
47 *939:C2 *952:A1 0.000372003
48 *947:A1 *904:I 1.2339e-05
49 *947:A1 *117:93 0.000269848
50 *947:B *904:I 0.000362608
51 *948:A1 *117:35 0.000117344
52 *948:A1 *117:43 1.26428e-05
53 *948:A2 *904:I 0.000242799
54 *948:A2 *117:99 0.00125902
55 *953:A2 *952:A1 9.88736e-06
56 *955:A2 *904:I 8.55327e-05
57 *958:B *958:C 0.000229879
58 *960:A2 *117:43 0.000656358
59 *960:B *960:C 1.5961e-05
60 *967:A1 *952:A1 0.000657859
61 *968:A2 *117:99 0.000255714
62 *968:B *952:A1 0.00024584
63 *968:B *117:99 7.98048e-05
64 *971:A2 *117:25 0
65 *972:A1 *117:25 0.000195532
66 *972:A2 *117:25 0
67 *975:A1 *973:A1 0.00017019
68 *975:A1 *117:25 9.45638e-06
69 *976:A1 *117:74 0.000460419
70 *976:A1 *117:93 9.52854e-05
71 *976:A2 *117:93 0.000276717
72 *986:CLK *958:C 0
73 *986:CLK *960:C 0
74 *991:CLK *117:99 1.74287e-05
75 *992:D *117:25 0.000258284
76 *1002:I *904:I 0
77 *3:10 *117:8 0
78 *3:10 *117:93 0
79 *41:8 *973:A1 0.000209093
80 *46:10 *952:A1 0.00095033
81 *47:8 *117:35 0
82 *53:12 *904:I 6.33531e-06
83 *56:10 *904:I 7.95952e-05
84 *56:12 *904:I 2.59502e-05
85 *84:14 *904:I 0.000492822
86 *92:12 *958:C 9.45347e-06
87 *102:11 *904:I 0.000271078
88 *102:11 *117:99 2.96977e-05
89 *103:10 *960:C 0
90 *106:12 *904:I 0.000791089
91 *116:8 *117:74 0
*RES
1 *1007:Z *117:8 9.684 
2 *117:8 *973:A1 9.988 
3 *117:8 *117:25 9.744 
4 *117:25 *117:31 1.596 
5 *117:31 *117:35 3.648 
6 *117:35 *117:43 12.48 
7 *117:43 *958:C 11.508 
8 *117:43 *960:C 9.988 
9 *117:35 *948:B 4.5 
10 *117:31 *117:74 13.56 
11 *117:74 *976:B 4.5 
12 *117:74 *117:93 13.332 
13 *117:93 *117:99 9.516 
14 *117:99 *968:C 9.228 
15 *117:99 *952:A1 17.74 
16 *117:93 *904:I 22.696 
17 *117:25 *971:A1 4.5 
*END

*D_NET *118 0.00162573
*CONN
*I *1016:I I *D gf180mcu_fd_sc_mcu7t5v0__buf_2
*I *977:Q O *D gf180mcu_fd_sc_mcu7t5v0__dffq_1
*CAP
1 *1016:I 0.000425473
2 *977:Q 0.000425473
3 *1016:I *916:A1 0.000309127
4 *923:A1 *1016:I 3.39859e-05
5 *924:A3 *1016:I 2.68653e-05
6 *968:A2 *1016:I 3.71904e-05
7 *47:8 *1016:I 4.26315e-06
8 *47:14 *1016:I 0.000363353
*RES
1 *977:Q *1016:I 21.724 
*END

*D_NET *119 0.000926872
*CONN
*I *944:A1 I *D gf180mcu_fd_sc_mcu7t5v0__aoi21_1
*I *1017:Z O *D gf180mcu_fd_sc_mcu7t5v0__clkbuf_1
*CAP
1 *944:A1 0.000190948
2 *1017:Z 0.000190948
3 *941:A1 *944:A1 8.55327e-05
4 *941:A2 *944:A1 0.000237987
5 *944:A2 *944:A1 3.23347e-05
6 *947:A1 *944:A1 0.000142809
7 *1017:I *944:A1 4.63109e-05
*RES
1 *1017:Z *944:A1 19.9 
*END

*D_NET *120 0.0124223
*CONN
*I *965:A2 I *D gf180mcu_fd_sc_mcu7t5v0__oai21_1
*I *966:A1 I *D gf180mcu_fd_sc_mcu7t5v0__aoi21_1
*I *963:A2 I *D gf180mcu_fd_sc_mcu7t5v0__oai21_1
*I *961:A2 I *D gf180mcu_fd_sc_mcu7t5v0__oai21_1
*I *962:A1 I *D gf180mcu_fd_sc_mcu7t5v0__aoi21_1
*I *959:A2 I *D gf180mcu_fd_sc_mcu7t5v0__nor2_1
*I *960:A1 I *D gf180mcu_fd_sc_mcu7t5v0__aoi211_1
*I *957:A2 I *D gf180mcu_fd_sc_mcu7t5v0__nor2_1
*I *958:A1 I *D gf180mcu_fd_sc_mcu7t5v0__aoi211_1
*I *964:A1 I *D gf180mcu_fd_sc_mcu7t5v0__aoi21_1
*I *1002:Z O *D gf180mcu_fd_sc_mcu7t5v0__buf_2
*CAP
1 *965:A2 0
2 *966:A1 0.000265967
3 *963:A2 0
4 *961:A2 0
5 *962:A1 0
6 *959:A2 0.000117015
7 *960:A1 6.93265e-05
8 *957:A2 4.21262e-05
9 *958:A1 0.000140975
10 *964:A1 0.0006115
11 *1002:Z 0.000149795
12 *120:80 0.000151927
13 *120:47 0.000379139
14 *120:45 0.000456926
15 *120:43 0.00035569
16 *120:39 0.000739939
17 *120:24 0.00140603
18 *120:18 0.000499987
19 *120:12 0.000635263
20 *120:8 0.000202909
21 *120:12 *963:B 0.000279416
22 *120:18 *963:B 0.000318487
23 *120:18 *122:108 3.08902e-05
24 *120:24 *122:108 0.000369754
25 *120:39 *122:108 0
26 *902:I *120:18 2.97354e-06
27 *929:A1 *958:A1 0.000145096
28 *929:A1 *120:43 0.000623818
29 *929:A1 *120:45 0.000713096
30 *929:A1 *120:47 0.000475449
31 *958:A2 *957:A2 2.40328e-06
32 *958:A2 *958:A1 3.73535e-05
33 *958:C *958:A1 0.000189146
34 *960:A2 *958:A1 0
35 *960:A2 *960:A1 1.3758e-05
36 *960:A2 *120:47 0
37 *960:B *959:A2 0.000193933
38 *962:A2 *959:A2 1.52691e-05
39 *962:A2 *120:80 2.9378e-06
40 *963:A1 *120:18 2.08148e-05
41 *966:A2 *964:A1 0.000399191
42 *966:A2 *966:A1 0.000171134
43 *966:A2 *120:18 6.29515e-05
44 *966:A2 *120:24 0.000399191
45 *966:B *966:A1 0.000378994
46 *966:B *120:12 0.000453575
47 *979:CLK *959:A2 0
48 *979:CLK *120:39 0.000255722
49 *987:D *960:A1 1.4689e-05
50 *988:D *120:80 2.6126e-05
51 *989:D *964:A1 0.000111858
52 *989:CLK *964:A1 0
53 *990:D *966:A1 0.000255722
54 *991:CLK *966:A1 5.09899e-05
55 *1002:I *120:8 3.94525e-05
56 *62:8 *958:A1 0
57 *92:12 *957:A2 9.88736e-06
58 *102:32 *966:A1 6.63182e-06
59 *102:32 *120:8 7.59884e-05
60 *103:10 *959:A2 3.94624e-05
61 *117:43 *957:A2 5.75752e-06
62 *117:43 *960:A1 5.87561e-06
*RES
1 *1002:Z *120:8 5.564 
2 *120:8 *120:12 5.944 
3 *120:12 *120:18 7.236 
4 *120:18 *120:24 6.476 
5 *120:24 *964:A1 13.256 
6 *120:24 *120:39 8.376 
7 *120:39 *120:43 6.096 
8 *120:43 *120:45 1.9 
9 *120:45 *120:47 1.444 
10 *120:47 *958:A1 10.52 
11 *120:47 *957:A2 9.228 
12 *120:45 *960:A1 9.38 
13 *120:43 *120:80 4.728 
14 *120:80 *959:A2 5.488 
15 *120:80 *962:A1 4.5 
16 *120:39 *961:A2 4.5 
17 *120:18 *963:A2 4.5 
18 *120:12 *966:A1 12.116 
19 *120:8 *965:A2 4.5 
*END

*D_NET *121 0.0116153
*CONN
*I *974:A2 I *D gf180mcu_fd_sc_mcu7t5v0__oai21_1
*I *913:A2 I *D gf180mcu_fd_sc_mcu7t5v0__nand2_1
*I *924:A2 I *D gf180mcu_fd_sc_mcu7t5v0__nand3_1
*I *967:A2 I *D gf180mcu_fd_sc_mcu7t5v0__nor2_1
*I *968:A1 I *D gf180mcu_fd_sc_mcu7t5v0__aoi211_1
*I *1003:Z O *D gf180mcu_fd_sc_mcu7t5v0__buf_2
*CAP
1 *974:A2 0
2 *913:A2 0
3 *924:A2 0.000247783
4 *967:A2 0.000537887
5 *968:A1 0.000102344
6 *1003:Z 0.000417892
7 *121:50 0.000369109
8 *121:22 0.00114249
9 *121:12 0.00150209
10 *121:8 0.0012964
11 *913:A1 *924:A2 0.00129435
12 *913:A1 *121:22 0
13 *913:A1 *121:50 8.55242e-05
14 *947:A1 *121:22 1.20889e-05
15 *974:B *121:8 7.24161e-06
16 *974:B *121:12 7.59566e-06
17 *976:A1 *121:22 6.38438e-05
18 *976:A1 *121:50 0.000406043
19 *976:A2 *121:22 0.000134113
20 *977:CLK *924:A2 0.000431543
21 *977:CLK *121:12 0
22 *977:CLK *121:50 6.17803e-05
23 *991:D *967:A2 0
24 *991:D *968:A1 7.49908e-05
25 *995:D *121:12 7.53241e-05
26 *995:CLK *121:50 2.70169e-05
27 *1002:I *967:A2 0.000246479
28 *3:10 *121:12 0
29 *100:10 *121:8 6.17205e-05
30 *102:6 *968:A1 9.18587e-05
31 *102:11 *967:A2 0
32 *102:11 *968:A1 0.000110089
33 *102:11 *121:22 0.0002988
34 *102:27 *967:A2 3.01612e-05
35 *102:32 *967:A2 1.6151e-05
36 *102:32 *968:A1 2.40654e-06
37 *105:6 *121:12 0
38 *105:8 *121:12 0
39 *116:8 *924:A2 0.000132933
40 *117:74 *924:A2 6.41945e-05
41 *117:74 *121:22 0.000166811
42 *117:74 *121:50 7.90729e-05
43 *117:93 *121:12 2.6126e-05
44 *117:93 *121:22 0.000490532
45 *117:99 *968:A1 0.000858374
46 *117:99 *121:22 0.000642134
*RES
1 *1003:Z *121:8 7.084 
2 *121:8 *121:12 5.168 
3 *121:12 *121:22 15.308 
4 *121:22 *968:A1 6.704 
5 *121:22 *967:A2 17.452 
6 *121:12 *121:50 10.672 
7 *121:50 *924:A2 17.148 
8 *121:50 *913:A2 4.5 
9 *121:8 *974:A2 4.5 
*END

*D_NET *122 0.0236994
*CONN
*I *950:A1 I *D gf180mcu_fd_sc_mcu7t5v0__nand2_1
*I *949:A2 I *D gf180mcu_fd_sc_mcu7t5v0__nand2_1
*I *961:B I *D gf180mcu_fd_sc_mcu7t5v0__oai21_1
*I *955:A1 I *D gf180mcu_fd_sc_mcu7t5v0__nand2_1
*I *956:A1 I *D gf180mcu_fd_sc_mcu7t5v0__nand2_1
*I *953:A1 I *D gf180mcu_fd_sc_mcu7t5v0__nand2_1
*I *951:B I *D gf180mcu_fd_sc_mcu7t5v0__oai21_1
*I *965:B I *D gf180mcu_fd_sc_mcu7t5v0__oai21_1
*I *963:B I *D gf180mcu_fd_sc_mcu7t5v0__oai21_1
*I *954:A1 I *D gf180mcu_fd_sc_mcu7t5v0__nand2_1
*I *1004:Z O *D gf180mcu_fd_sc_mcu7t5v0__buf_2
*CAP
1 *950:A1 0
2 *949:A2 0.000404613
3 *961:B 5.46724e-05
4 *955:A1 0
5 *956:A1 0.0008067
6 *953:A1 0.000113139
7 *951:B 0.000653901
8 *965:B 3.04494e-05
9 *963:B 0.00100533
10 *954:A1 0
11 *1004:Z 0.000171864
12 *122:121 0.000805298
13 *122:108 0.00125097
14 *122:77 0.00081093
15 *122:33 0.000524439
16 *122:31 0.00141778
17 *122:25 0.001034
18 *122:16 0.000826272
19 *122:10 0.000561114
20 *902:I *963:B 0.000376925
21 *902:I *122:33 3.46377e-05
22 *904:I *122:16 3.7319e-05
23 *929:A2 *949:A2 7.38041e-06
24 *931:A1 *949:A2 0.000147932
25 *931:B2 *949:A2 7.24795e-05
26 *934:A2 *949:A2 4.18846e-05
27 *934:A2 *951:B 7.71175e-06
28 *934:B1 *951:B 9.26705e-05
29 *934:B2 *951:B 0.0010362
30 *934:C *951:B 8.55819e-05
31 *936:I *122:25 0.000593185
32 *936:I *122:31 7.98484e-05
33 *937:A2 *951:B 0.000742452
34 *937:B1 *122:31 0
35 *943:B2 *956:A1 0.00132463
36 *945:A1 *956:A1 0
37 *949:A1 *949:A2 0.000203975
38 *950:A2 *949:A2 0.000905084
39 *951:A1 *951:B 0.00017927
40 *951:A2 *951:B 1.15275e-05
41 *952:A1 *122:31 2.73945e-05
42 *952:A1 *122:33 0
43 *953:A2 *122:31 5.87561e-06
44 *955:A2 *122:16 0.000547958
45 *961:A1 *122:108 5.76373e-06
46 *961:A1 *122:121 0
47 *963:A1 *963:B 2.17248e-05
48 *965:A1 *963:B 0.000269848
49 *965:A1 *122:33 0.000308479
50 *966:B *963:B 1.99058e-05
51 *974:B *956:A1 0.000342497
52 *974:B *122:16 1.76898e-05
53 *974:B *122:77 1.02578e-05
54 *979:CLK *122:121 0
55 *982:D *953:A1 1.58994e-05
56 *982:D *122:25 2.80263e-05
57 *982:CLK *122:16 5.76373e-06
58 *982:CLK *122:25 0.000281547
59 *983:D *122:16 5.3266e-05
60 *983:CLK *122:16 0.000386421
61 *984:CLK *956:A1 0.000140328
62 *984:CLK *122:16 0.000829797
63 *984:CLK *122:77 8.55327e-05
64 *985:D *956:A1 5.71282e-05
65 *985:CLK *956:A1 9.4717e-05
66 *991:CLK *963:B 1.15244e-05
67 *991:CLK *122:108 0
68 *1002:I *965:B 7.83779e-05
69 *1003:I *956:A1 0
70 *1004:I *956:A1 0
71 *1004:I *122:10 0.000269857
72 *1017:I *122:16 0
73 *1017:I *122:25 0
74 *46:10 *122:33 8.64878e-05
75 *53:12 *122:10 0
76 *77:21 *951:B 0.00105085
77 *93:8 *122:121 0
78 *93:19 *949:A2 8.8586e-05
79 *94:8 *122:108 0.000221377
80 *94:8 *122:121 0.000147313
81 *96:8 *965:B 1.91917e-06
82 *96:23 *122:33 0.000335667
83 *104:12 *122:108 0
84 *104:35 *951:B 0
85 *107:16 *949:A2 1.45034e-05
86 *108:17 *949:A2 0.000300149
87 *114:12 *956:A1 8.62306e-05
88 *120:12 *963:B 0.000279416
89 *120:18 *963:B 0.000318487
90 *120:18 *122:108 3.08902e-05
91 *120:24 *122:108 0.000369754
92 *120:39 *122:108 0
*RES
1 *1004:Z *122:10 14.944 
2 *122:10 *122:16 4.788 
3 *122:16 *954:A1 4.5 
4 *122:16 *122:25 4.256 
5 *122:25 *122:31 7.388 
6 *122:31 *122:33 2.964 
7 *122:33 *963:B 13.104 
8 *122:33 *965:B 9.228 
9 *122:31 *951:B 17.284 
10 *122:25 *953:A1 5.108 
11 *122:10 *122:77 0.228 
12 *122:77 *956:A1 22.012 
13 *122:77 *955:A1 4.5 
14 *963:B *122:108 10.124 
15 *122:108 *961:B 4.88 
16 *122:108 *122:121 2.508 
17 *122:121 *949:A2 18.82 
18 *122:121 *950:A1 4.5 
*END

*D_NET *123 0.00132182
*CONN
*I *918:A1 I *D gf180mcu_fd_sc_mcu7t5v0__nand2_1
*I *1008:Z O *D gf180mcu_fd_sc_mcu7t5v0__buf_2
*CAP
1 *918:A1 0.000316633
2 *1008:Z 0.000316633
3 *921:A1 *918:A1 0.000153012
4 *922:B *918:A1 9.26705e-05
5 *1005:I *918:A1 8.73421e-05
6 *1009:I *918:A1 0
7 *47:34 *918:A1 0.000355531
*RES
1 *1008:Z *918:A1 11.736 
*END

*D_NET *124 0.00124225
*CONN
*I *922:A2 I *D gf180mcu_fd_sc_mcu7t5v0__oai21_1
*I *920:A1 I *D gf180mcu_fd_sc_mcu7t5v0__nand2_1
*I *1009:Z O *D gf180mcu_fd_sc_mcu7t5v0__buf_2
*CAP
1 *922:A2 0
2 *920:A1 5.78905e-05
3 *1009:Z 0.000193111
4 *124:12 0.000251001
5 *918:A2 *124:12 0.00023222
6 *921:A1 *920:A1 6.05474e-05
7 *921:A1 *124:12 0.000250562
8 *966:A2 *920:A1 0
9 *47:47 *920:A1 9.50423e-05
10 *47:47 *124:12 1.78413e-05
11 *47:51 *124:12 8.40333e-05
12 *62:8 *920:A1 0
*RES
1 *1009:Z *124:12 15.324 
2 *124:12 *920:A1 14.184 
3 *124:12 *922:A2 4.5 
*END

*D_NET *125 0.00128935
*CONN
*I *916:A1 I *D gf180mcu_fd_sc_mcu7t5v0__nand2_1
*I *1010:Z O *D gf180mcu_fd_sc_mcu7t5v0__buf_2
*CAP
1 *916:A1 0.000183554
2 *1010:Z 0.000183554
3 *917:A3 *916:A1 0.000102192
4 *923:A1 *916:A1 7.3227e-05
5 *968:A2 *916:A1 0.000437693
6 *1016:I *916:A1 0.000309127
*RES
1 *1010:Z *916:A1 20.356 
*END

*D_NET *126 0.000663761
*CONN
*I *919:A1 I *D gf180mcu_fd_sc_mcu7t5v0__nand2_1
*I *1011:Z O *D gf180mcu_fd_sc_mcu7t5v0__buf_2
*CAP
1 *919:A1 0.000170053
2 *1011:Z 0.000170053
3 *1005:I *919:A1 0.00026286
4 *47:32 *919:A1 6.07941e-05
5 *47:47 *919:A1 0
*RES
1 *1011:Z *919:A1 19.368 
*END

*D_NET *127 0.00170518
*CONN
*I *915:A1 I *D gf180mcu_fd_sc_mcu7t5v0__nand2_1
*I *1012:Z O *D gf180mcu_fd_sc_mcu7t5v0__buf_2
*CAP
1 *915:A1 0.000504381
2 *1012:Z 0.000504381
3 *915:A1 *914:A1 1.22549e-05
4 *917:A2 *915:A1 0.000201937
5 *917:A3 *915:A1 5.47552e-05
6 *917:A4 *915:A1 3.00299e-05
7 *1012:I *915:A1 0.000366552
8 *47:32 *915:A1 3.08902e-05
*RES
1 *1012:Z *915:A1 14.168 
*END

*D_NET *128 0.0011853
*CONN
*I *970:B2 I *D gf180mcu_fd_sc_mcu7t5v0__aoi22_1
*I *914:A2 I *D gf180mcu_fd_sc_mcu7t5v0__nor2_1
*I *1013:Z O *D gf180mcu_fd_sc_mcu7t5v0__buf_2
*CAP
1 *970:B2 3.43097e-05
2 *914:A2 0.000264384
3 *1013:Z 7.10817e-05
4 *128:6 0.000369775
5 *914:A2 *903:I 3.59665e-05
6 *914:A2 *914:A1 0.000200671
7 *970:B2 *914:A1 1.44832e-05
8 *970:B2 *972:B2 0
9 *128:6 *972:B2 0
10 *41:6 *914:A2 0.000149579
11 *41:6 *970:B2 4.50449e-05
*RES
1 *1013:Z *128:6 5.032 
2 *128:6 *914:A2 7.008 
3 *128:6 *970:B2 4.956 
*END

*D_NET *129 0.00204786
*CONN
*I *972:B2 I *D gf180mcu_fd_sc_mcu7t5v0__aoi22_1
*I *914:A1 I *D gf180mcu_fd_sc_mcu7t5v0__nor2_1
*I *1014:Z O *D gf180mcu_fd_sc_mcu7t5v0__buf_2
*CAP
1 *972:B2 0.000203227
2 *914:A1 0.000517819
3 *1014:Z 0
4 *129:4 0.000721045
5 *914:A2 *914:A1 0.000200671
6 *915:A1 *914:A1 1.22549e-05
7 *917:A2 *914:A1 6.12388e-05
8 *970:B2 *914:A1 1.44832e-05
9 *970:B2 *972:B2 0
10 *973:A1 *972:B2 8.55327e-05
11 *1007:I *972:B2 0
12 *1012:I *914:A1 2.57058e-06
13 *1013:I *914:A1 5.04498e-05
14 *1015:I *914:A1 1.29518e-05
15 *41:6 *914:A1 1.02823e-05
16 *41:8 *914:A1 2.333e-05
17 *41:8 *972:B2 0.000132001
18 *128:6 *972:B2 0
*RES
1 *1014:Z *129:4 4.5 
2 *129:4 *914:A1 8.756 
3 *129:4 *972:B2 6.172 
*END

*D_NET *130 0.000787348
*CONN
*I *903:I I *D gf180mcu_fd_sc_mcu7t5v0__clkinv_1
*I *969:A1 I *D gf180mcu_fd_sc_mcu7t5v0__nor2_1
*I *1015:Z O *D gf180mcu_fd_sc_mcu7t5v0__buf_2
*CAP
1 *903:I 0.000244675
2 *969:A1 0
3 *1015:Z 0.000106796
4 *130:8 0.000351471
5 *914:A2 *903:I 3.59665e-05
6 *969:A2 *903:I 0
7 *971:A2 *903:I 4.84399e-05
8 *117:31 *903:I 0
*RES
1 *1015:Z *130:8 9.684 
2 *130:8 *969:A1 9 
3 *130:8 *903:I 10.672 
*END
